! Synthetic 12 in backplane pair with a via-stub resonance near 6 GHz (a notch in the through response). Ports: P1,P2 in -> P3,P4 out. Generated for DAW_LAB.
# GHz S RI R 50
0.050000 0.000000000 0.000000000 0.000000000 0.000000000 0.774506771 -0.631931121 -0.001786748 -0.002189872
 0.000000000 0.000000000 0.000000000 0.000000000 -0.001809002 -0.002171480 0.768001908 -0.639802012
 0.774506771 -0.631931121 -0.001809002 -0.002171480 0.000000000 0.000000000 0.000000000 0.000000000
 -0.001786748 -0.002189872 0.768001908 -0.639802012 0.000000000 0.000000000 0.000000000 0.000000000
0.100000 0.000000000 0.000000000 0.000000000 0.000000000 0.200393628 -0.978079163 -0.005530966 -0.001133211
 0.000000000 0.000000000 0.000000000 0.000000000 -0.005552693 -0.001019942 0.180363411 -0.981921232
 0.200393628 -0.978079163 -0.005552693 -0.001019942 0.000000000 0.000000000 0.000000000 0.000000000
 -0.005530966 -0.001133211 0.180363411 -0.981921232 0.000000000 0.000000000 0.000000000 0.000000000
0.150000 0.000000000 0.000000000 0.000000000 0.000000000 -0.462049638 -0.882793054 -0.007488295 0.003919338
 0.000000000 0.000000000 0.000000000 0.000000000 -0.007363914 0.004146452 -0.488824127 -0.868129773
 -0.462049638 -0.882793054 -0.007363914 0.004146452 0.000000000 0.000000000 0.000000000 0.000000000
 -0.007488295 0.003919338 -0.488824127 -0.868129773 0.000000000 0.000000000 0.000000000 0.000000000
0.200000 0.000000000 0.000000000 0.000000000 0.000000000 -0.913461708 -0.390979008 -0.004422057 0.010331449
 0.000000000 0.000000000 0.000000000 0.000000000 -0.003995717 0.010501389 -0.928487032 -0.353283898
 -0.913461708 -0.390979008 -0.003995717 0.010501389 0.000000000 0.000000000 0.000000000 0.000000000
 -0.004422057 0.010331449 -0.928487032 -0.353283898 0.000000000 0.000000000 0.000000000 0.000000000
0.250000 0.000000000 0.000000000 0.000000000 0.000000000 -0.951605729 0.273262130 0.003863410 0.013453905
 0.000000000 0.000000000 0.000000000 0.000000000 0.004543503 0.013235291 -0.936142972 0.321365683
 -0.951605729 0.273262130 0.004543503 0.013235291 0.000000000 0.000000000 0.000000000 0.000000000
 0.003863410 0.013453905 -0.936142972 0.321365683 0.000000000 0.000000000 0.000000000 0.000000000
0.300000 0.000000000 0.000000000 0.000000000 0.000000000 -0.562485569 0.809517594 0.013734460 0.009543258
 0.000000000 0.000000000 0.000000000 0.000000000 0.014286659 0.008681060 -0.511667072 0.842064536
 -0.562485569 0.809517594 0.014286659 0.008681060 0.000000000 0.000000000 0.000000000 0.000000000
 0.013734460 0.009543258 -0.511667072 0.842064536 0.000000000 0.000000000 0.000000000 0.000000000
0.350000 0.000000000 0.000000000 0.000000000 0.000000000 0.074921378 0.977840089 0.019355971 -0.001483040
 0.000000000 0.000000000 0.000000000 0.000000000 0.019189636 -0.002858951 0.144430703 0.969437001
 0.074921378 0.977840089 0.019189636 -0.002858951 0.000000000 0.000000000 0.000000000 0.000000000
 0.019355971 -0.001483040 0.144430703 0.969437001 0.000000000 0.000000000 0.000000000 0.000000000
0.400000 0.000000000 0.000000000 0.000000000 0.000000000 0.671649966 0.706686524 0.015987599 -0.015194956
 0.000000000 0.000000000 0.000000000 0.000000000 0.014684756 -0.016435177 0.726470436 0.649098014
 0.671649966 0.706686524 0.014684756 -0.016435177 0.000000000 0.000000000 0.000000000 0.000000000
 0.015987599 -0.015194956 0.726470436 0.649098014 0.000000000 0.000000000 0.000000000 0.000000000
0.450000 0.000000000 0.000000000 0.000000000 0.000000000 0.960632136 0.123183119 0.003135305 -0.024450388
 0.000000000 0.000000000 0.000000000 0.000000000 0.000880671 -0.024611488 0.966961581 0.034600719
 0.960632136 0.123183119 0.000880671 -0.024611488 0.000000000 0.000000000 0.000000000 0.000000000
 0.003135305 -0.024450388 0.966961581 0.034600719 0.000000000 0.000000000 0.000000000 0.000000000
0.500000 0.000000000 0.000000000 0.000000000 0.000000000 0.816843791 -0.506988499 -0.014338583 -0.023101871
 0.000000000 0.000000000 0.000000000 0.000000000 -0.016595383 -0.021498124 0.760137979 -0.586785189
 0.816843791 -0.506988499 -0.016595383 -0.021498124 0.000000000 0.000000000 0.000000000 0.000000000
 -0.014338583 -0.023101871 0.760137979 -0.586785189 0.000000000 0.000000000 0.000000000 0.000000000
0.550000 0.000000000 0.000000000 0.000000000 0.000000000 0.311363922 -0.901391614 -0.028043915 -0.009687092
 0.000000000 0.000000000 0.000000000 0.000000000 -0.028910966 -0.006481207 0.208319900 -0.929260494
 0.311363922 -0.901391614 -0.028910966 -0.006481207 0.000000000 0.000000000 0.000000000 0.000000000
 -0.028043915 -0.009687092 0.208319900 -0.929260494 0.000000000 0.000000000 0.000000000 0.000000000
0.600000 0.000000000 0.000000000 0.000000000 0.000000000 -0.323986222 -0.888065861 -0.030142932 0.010996814
 0.000000000 0.000000000 0.000000000 0.000000000 -0.028530886 0.014564832 -0.429106552 -0.840572013
 -0.323986222 -0.888065861 -0.028530886 0.014564832 0.000000000 0.000000000 0.000000000 0.000000000
 -0.030142932 0.010996814 -0.429106552 -0.840572013 0.000000000 0.000000000 0.000000000 0.000000000
0.650000 0.000000000 0.000000000 0.000000000 0.000000000 -0.803705549 -0.480565220 -0.017671919 0.029554822
 0.000000000 0.000000000 0.000000000 0.000000000 -0.013592712 0.031567342 -0.858433462 -0.369636394
 -0.803705549 -0.480565220 -0.013592712 0.031567342 0.000000000 0.000000000 0.000000000 0.000000000
 -0.017671919 0.029554822 -0.858433462 -0.369636394 0.000000000 0.000000000 0.000000000 0.000000000
0.700000 0.000000000 0.000000000 0.000000000 0.000000000 -0.917558090 0.131943999 0.005225610 0.036339663
 0.000000000 0.000000000 0.000000000 0.000000000 0.010307342 0.035152992 -0.887595248 0.260255172
 -0.917558090 0.131943999 0.010307342 0.035152992 0.000000000 0.000000000 0.000000000 0.000000000
 0.005225610 0.036339663 -0.887595248 0.260255172 0.000000000 0.000000000 0.000000000 0.000000000
0.750000 0.000000000 0.000000000 0.000000000 0.000000000 -0.622852207 0.673118773 0.028565106 0.026431947
 0.000000000 0.000000000 0.000000000 0.000000000 0.032168160 0.021732245 -0.512106695 0.758022468
 -0.622852207 0.673118773 0.032168160 0.021732245 0.000000000 0.000000000 0.000000000 0.000000000
 0.028565106 0.026431947 -0.512106695 0.758022468 0.000000000 0.000000000 0.000000000 0.000000000
0.800000 0.000000000 0.000000000 0.000000000 0.000000000 -0.059508932 0.904751504 0.040957939 0.002693959
 0.000000000 0.000000000 0.000000000 0.000000000 0.040739619 -0.003958729 0.087447413 0.899928873
 -0.059508932 0.904751504 0.040739619 -0.003958729 0.000000000 0.000000000 0.000000000 0.000000000
 0.040957939 0.002693959 0.087447413 0.899928873 0.000000000 0.000000000 0.000000000 0.000000000
0.850000 0.000000000 0.000000000 0.000000000 0.000000000 0.516805228 0.731831859 0.035203615 -0.024860098
 0.000000000 0.000000000 0.000000000 0.000000000 0.030316137 -0.030441228 0.632828785 0.630228329
 0.516805228 0.731831859 0.030316137 -0.030441228 0.000000000 0.000000000 0.000000000 0.000000000
 0.035203615 -0.024860098 0.632828785 0.630228329 0.000000000 0.000000000 0.000000000 0.000000000
0.900000 0.000000000 0.000000000 0.000000000 0.000000000 0.851303568 0.240947531 0.012273334 -0.043363521
 0.000000000 0.000000000 0.000000000 0.000000000 0.004179335 -0.044716271 0.877860487 0.082047829
 0.851303568 0.240947531 0.004179335 -0.044716271 0.000000000 0.000000000 0.000000000 0.000000000
 0.012273334 -0.043363521 0.877860487 0.082047829 0.000000000 0.000000000 0.000000000 0.000000000
0.950000 0.000000000 0.000000000 0.000000000 0.000000000 0.802981058 -0.343150375 -0.018452216 -0.043178679
 0.000000000 0.000000000 0.000000000 0.000000000 -0.026277268 -0.038699593 0.719684820 -0.488670535
 0.802981058 -0.343150375 -0.026277268 -0.038699593 0.000000000 0.000000000 0.000000000 0.000000000
 -0.018452216 -0.043178679 0.719684820 -0.488670535 0.000000000 0.000000000 0.000000000 0.000000000
1.000000 0.000000000 0.000000000 0.000000000 0.000000000 0.403665238 -0.760972159 -0.043077889 -0.022851094
 0.000000000 0.000000000 0.000000000 0.000000000 -0.046600970 -0.013656974 0.241250843 -0.823207483
 0.403665238 -0.760972159 -0.046600970 -0.013656974 0.000000000 0.000000000 0.000000000 0.000000000
 -0.043077889 -0.022851094 0.241250843 -0.823207483 0.000000000 0.000000000 0.000000000 0.000000000
1.050000 0.000000000 0.000000000 0.000000000 0.000000000 -0.161270150 -0.833863804 -0.049569848 0.009586862
 0.000000000 0.000000000 0.000000000 0.000000000 -0.046221008 0.019741630 -0.332093625 -0.777529628
 -0.161270150 -0.833863804 -0.046221008 0.019741630 0.000000000 0.000000000 0.000000000 0.000000000
 -0.049569848 0.009586862 -0.332093625 -0.777529628 0.000000000 0.000000000 0.000000000 0.000000000
1.100000 0.000000000 0.000000000 0.000000000 0.000000000 -0.639371611 -0.540139989 -0.033642018 0.039822549
 0.000000000 0.000000000 0.000000000 0.000000000 -0.023904189 0.046040632 -0.739206149 -0.383794115
 -0.639371611 -0.540139989 -0.023904189 0.046040632 0.000000000 0.000000000 0.000000000 0.000000000
 -0.033642018 0.039822549 -0.739206149 -0.383794115 0.000000000 0.000000000 0.000000000 0.000000000
1.150000 0.000000000 0.000000000 0.000000000 0.000000000 -0.824226109 -0.019504492 -0.001270187 0.053675909
 0.000000000 0.000000000 0.000000000 0.000000000 0.011074207 0.052248050 -0.802300476 0.170051165
 -0.824226109 -0.019504492 0.011074207 0.052248050 0.000000000 0.000000000 0.000000000 0.000000000
 -0.001270187 0.053675909 -0.802300476 0.170051165 0.000000000 0.000000000 0.000000000 0.000000000
1.200000 0.000000000 0.000000000 0.000000000 0.000000000 -0.644425214 0.493626676 0.033548227 0.043796910
 0.000000000 0.000000000 0.000000000 0.000000000 0.042839162 0.034267536 -0.504210548 0.630332967
 -0.644425214 0.493626676 0.042839162 0.034267536 0.000000000 0.000000000 0.000000000 0.000000000
 0.033548227 0.043796910 -0.504210548 0.630332967 0.000000000 0.000000000 0.000000000 0.000000000
1.250000 0.000000000 0.000000000 0.000000000 0.000000000 -0.190146666 0.775964669 0.054941245 0.013463106
 0.000000000 0.000000000 0.000000000 0.000000000 0.056222405 -0.000677451 0.009567998 0.794059174
 -0.190146666 0.775964669 0.056222405 -0.000677451 0.000000000 0.000000000 0.000000000 0.000000000
 0.054941245 0.013463106 0.009567998 0.794059174 0.000000000 0.000000000 0.000000000 0.000000000
1.300000 0.000000000 0.000000000 0.000000000 0.000000000 0.331946259 0.712443888 0.052468630 -0.024446508
 0.000000000 0.000000000 0.000000000 0.000000000 0.044053022 -0.036975296 0.502068068 0.598172780
 0.331946259 0.712443888 0.044053022 -0.036975296 0.000000000 0.000000000 0.000000000 0.000000000
 0.052468630 -0.024446508 0.502068068 0.598172780 0.000000000 0.000000000 0.000000000 0.000000000
1.350000 0.000000000 0.000000000 0.000000000 0.000000000 0.692973108 0.342425688 0.026191918 -0.053005063
 0.000000000 0.000000000 0.000000000 0.000000000 0.010906808 -0.057700198 0.754355978 0.142592502
 0.692973108 0.342425688 0.010906808 -0.057700198 0.000000000 0.000000000 0.000000000 0.000000000
 0.026191918 -0.053005063 0.754355978 0.142592502 0.000000000 0.000000000 0.000000000 0.000000000
1.400000 0.000000000 0.000000000 0.000000000 0.000000000 0.742169897 -0.163143292 -0.012942802 -0.058879268
 0.000000000 0.000000000 0.000000000 0.000000000 -0.028608908 -0.052572403 0.662672215 -0.360613693
 0.742169897 -0.163143292 -0.028608908 -0.052572403 0.000000000 0.000000000 0.000000000 0.000000000
 -0.012942802 -0.058879268 0.662672215 -0.360613693 0.000000000 0.000000000 0.000000000 0.000000000
1.450000 0.000000000 0.000000000 0.000000000 0.000000000 0.469343685 -0.580876859 -0.047736358 -0.038570581
 0.000000000 0.000000000 0.000000000 0.000000000 -0.056385342 -0.023030278 0.280242490 -0.686121478
 0.469343685 -0.580876859 -0.056385342 -0.023030278 0.000000000 0.000000000 0.000000000 0.000000000
 -0.047736358 -0.038570581 0.280242490 -0.686121478 0.000000000 0.000000000 0.000000000 0.000000000
1.500000 0.000000000 0.000000000 0.000000000 0.000000000 0.003869991 -0.733687965 -0.062383302 -0.000329054
 0.000000000 0.000000000 0.000000000 0.000000000 -0.059189833 0.018075268 -0.212582637 -0.696129680
 0.003869991 -0.733687965 -0.059189833 0.018075268 0.000000000 0.000000000 0.000000000 0.000000000
 -0.062383302 -0.000329054 -0.212582637 -0.696129680 0.000000000 0.000000000 0.000000000 0.000000000
1.550000 0.000000000 0.000000000 0.000000000 0.000000000 -0.446674395 -0.565491933 -0.049692936 0.039251775
 0.000000000 0.000000000 0.000000000 0.000000000 -0.034978789 0.052153522 -0.593492727 -0.398048986
 -0.446674395 -0.565491933 -0.034978789 0.052153522 0.000000000 0.000000000 0.000000000 0.000000000
 -0.049692936 0.039251775 -0.593492727 -0.398048986 0.000000000 0.000000000 0.000000000 0.000000000
1.600000 0.000000000 0.000000000 0.000000000 0.000000000 -0.689130902 -0.160581112 -0.014568813 0.062521794
 0.000000000 0.000000000 0.000000000 0.000000000 0.005867500 0.063365758 -0.698433284 0.064673060
 -0.689130902 -0.160581112 0.005867500 0.063365758 0.000000000 0.000000000 0.000000000 0.000000000
 -0.014568813 0.062521794 -0.698433284 0.064673060 0.000000000 0.000000000 0.000000000 0.000000000
1.650000 0.000000000 0.000000000 0.000000000 0.000000000 -0.627307430 0.298307810 0.027914755 0.058701558
 0.000000000 0.000000000 0.000000000 0.000000000 0.045065161 0.046017893 -0.491764913 0.481583650
 -0.627307430 0.298307810 0.045065161 0.046017893 0.000000000 0.000000000 0.000000000 0.000000000
 0.027914755 0.058701558 -0.491764913 0.481583650 0.000000000 0.000000000 0.000000000 0.000000000
1.700000 0.000000000 0.000000000 0.000000000 0.000000000 -0.299341316 0.612500379 0.059063394 0.028865474
 0.000000000 0.000000000 0.000000000 0.000000000 0.064695153 0.007391700 -0.076653553 0.670902960
 -0.299341316 0.612500379 0.064695153 0.007391700 0.000000000 0.000000000 0.000000000 0.000000000
 0.059063394 0.028865474 -0.076653553 0.670902960 0.000000000 0.000000000 0.000000000 0.000000000
1.750000 0.000000000 0.000000000 0.000000000 0.000000000 0.144189699 0.653216596 0.064854271 -0.014315800
 0.000000000 0.000000000 0.000000000 0.000000000 0.055440555 -0.035366376 0.356212528 0.558401013
 0.144189699 0.653216596 0.055440555 -0.035366376 0.000000000 0.000000000 0.000000000 0.000000000
 0.064854271 -0.014315800 0.356212528 0.558401013 0.000000000 0.000000000 0.000000000 0.000000000
1.800000 0.000000000 0.000000000 0.000000000 0.000000000 0.509384371 0.413767705 0.042262480 -0.052028823
 0.000000000 0.000000000 0.000000000 0.000000000 0.020987331 -0.062937498 0.616184953 0.205474924
 0.509384371 0.413767705 0.020987331 -0.062937498 0.000000000 0.000000000 0.000000000 0.000000000
 0.042262480 -0.052028823 0.616184953 0.205474924 0.000000000 0.000000000 0.000000000 0.000000000
1.850000 0.000000000 0.000000000 0.000000000 0.000000000 0.643660104 0.007284631 0.000764874 -0.067583255
 0.000000000 0.000000000 0.000000000 0.000000000 -0.023477776 -0.062613790 0.596331129 -0.223601360
 0.643660104 0.007284631 -0.023477776 -0.062613790 0.000000000 0.000000000 0.000000000 0.000000000
 0.000764874 -0.067583255 0.596331129 -0.223601360 0.000000000 0.000000000 0.000000000 0.000000000
1.900000 0.000000000 0.000000000 0.000000000 0.000000000 0.499061084 -0.386590438 -0.041696802 -0.053827641
 0.000000000 0.000000000 0.000000000 0.000000000 -0.058036480 -0.034155981 0.316675973 -0.538083182
 0.499061084 -0.386590438 -0.058036480 -0.034155981 0.000000000 0.000000000 0.000000000 0.000000000
 -0.041696802 -0.053827641 0.316675973 -0.538083182 0.000000000 0.000000000 0.000000000 0.000000000
1.950000 0.000000000 0.000000000 0.000000000 0.000000000 0.148210256 -0.601000168 -0.066542154 -0.016409695
 0.000000000 0.000000000 0.000000000 0.000000000 -0.067021208 0.009971698 -0.090063092 -0.605326920
 0.148210256 -0.601000168 -0.067021208 0.009971698 0.000000000 0.000000000 0.000000000 0.000000000
 -0.066542154 -0.016409695 -0.090063092 -0.605326920 0.000000000 0.000000000 0.000000000 0.000000000
2.000000 0.000000000 0.000000000 0.000000000 0.000000000 -0.251718725 -0.552222625 -0.062722564 0.028590723
 0.000000000 0.000000000 0.000000000 0.000000000 -0.046133535 0.050128012 -0.441337541 -0.406169332
 -0.251718725 -0.552222625 -0.046133535 0.050128012 0.000000000 0.000000000 0.000000000 0.000000000
 -0.062722564 0.028590723 -0.441337541 -0.406169332 0.000000000 0.000000000 0.000000000 0.000000000
2.050000 0.000000000 0.000000000 0.000000000 0.000000000 -0.529318773 -0.271603196 -0.031627340 0.061637510
 0.000000000 0.000000000 0.000000000 0.000000000 -0.004460725 0.068298636 -0.586521907 -0.038306954
 -0.529318773 -0.271603196 -0.004460725 0.068298636 0.000000000 0.000000000 0.000000000 0.000000000
 -0.031627340 0.061637510 -0.586521907 -0.038306954 0.000000000 0.000000000 0.000000000 0.000000000
2.100000 0.000000000 0.000000000 0.000000000 0.000000000 -0.572159045 0.112701725 0.013446847 0.068266348
 0.000000000 0.000000000 0.000000000 0.000000000 0.039535963 0.056203645 -0.471058212 0.331361784
 -0.572159045 0.112701725 0.039535963 0.056203645 0.000000000 0.000000000 0.000000000 0.000000000
 0.013446847 0.068266348 -0.471058212 0.331361784 0.000000000 0.000000000 0.000000000 0.000000000
2.150000 0.000000000 0.000000000 0.000000000 0.000000000 -0.371763837 0.434121772 0.053041973 0.045422941
 0.000000000 0.000000000 0.000000000 0.000000000 0.066260462 0.019050622 -0.155919720 0.542308425
 -0.371763837 0.434121772 0.066260462 0.019050622 0.000000000 0.000000000 0.000000000 0.000000000
 0.053041973 0.045422941 -0.155919720 0.542308425 0.000000000 0.000000000 0.000000000 0.000000000
2.200000 0.000000000 0.000000000 0.000000000 0.000000000 -0.022660771 0.559672995 0.069988725 0.002833795
 0.000000000 0.000000000 0.000000000 0.000000000 0.063743797 -0.026755755 0.213955514 0.509734707
 -0.022660771 0.559672995 0.063743797 -0.026755755 0.000000000 0.000000000 0.000000000 0.000000000
 0.069988725 0.002833795 0.213955514 0.509734707 0.000000000 0.000000000 0.000000000 0.000000000
2.250000 0.000000000 0.000000000 0.000000000 0.000000000 0.321969181 0.444553300 0.056869730 -0.041188088
 0.000000000 0.000000000 0.000000000 0.000000000 0.032997983 -0.060914895 0.476174537 0.257946752
 0.321969181 0.444553300 0.032997983 -0.060914895 0.000000000 0.000000000 0.000000000 0.000000000
 0.056869730 -0.041188088 0.476174537 0.257946752 0.000000000 0.000000000 0.000000000 0.000000000
2.300000 0.000000000 0.000000000 0.000000000 0.000000000 0.517342489 0.147143485 0.019246414 -0.067668559
 0.000000000 0.000000000 0.000000000 0.000000000 -0.012426789 -0.068266013 0.521910166 -0.095005807
 0.517342489 0.147143485 -0.012426789 -0.068266013 0.000000000 0.000000000 0.000000000 0.000000000
 0.019246414 -0.067668559 0.521910166 -0.095005807 0.000000000 0.000000000 0.000000000 0.000000000
2.350000 0.000000000 0.000000000 0.000000000 0.000000000 0.487568656 -0.200056020 -0.026742927 -0.065176809
 0.000000000 0.000000000 0.000000000 0.000000000 -0.052467089 -0.045520833 0.340528044 -0.392490958
 0.487568656 -0.200056020 -0.052467089 -0.045520833 0.000000000 0.000000000 0.000000000 0.000000000
 -0.026742927 -0.065176809 0.340528044 -0.392490958 0.000000000 0.000000000 0.000000000 0.000000000
2.400000 0.000000000 0.000000000 0.000000000 0.000000000 0.254488337 -0.449299916 -0.061354710 -0.034751972
 0.000000000 0.000000000 0.000000000 0.000000000 -0.069449496 -0.002704606 0.019805802 -0.508577953
 0.254488337 -0.449299916 -0.069449496 -0.002704606 0.000000000 0.000000000 0.000000000 0.000000000
 -0.061354710 -0.034751972 0.019805802 -0.508577953 0.000000000 0.000000000 0.000000000 0.000000000
2.450000 0.000000000 0.000000000 0.000000000 0.000000000 -0.075770462 -0.500209500 -0.069747974 0.010565246
 0.000000000 0.000000000 0.000000000 0.000000000 -0.055903842 0.041309822 -0.296260436 -0.400923939
 -0.075770462 -0.500209500 -0.055903842 0.041309822 0.000000000 0.000000000 0.000000000 0.000000000
 -0.069747974 0.010565246 -0.296260436 -0.400923939 0.000000000 0.000000000 0.000000000 0.000000000
2.500000 0.000000000 0.000000000 0.000000000 0.000000000 -0.360927050 -0.339725798 -0.048350141 0.051367526
 0.000000000 0.000000000 0.000000000 0.000000000 -0.017829405 0.067163091 -0.471912476 -0.125275926
 -0.360927050 -0.339725798 -0.017829405 0.067163091 0.000000000 0.000000000 0.000000000 0.000000000
 -0.048350141 0.051367526 -0.471912476 -0.125275926 0.000000000 0.000000000 0.000000000 0.000000000
2.550000 0.000000000 0.000000000 0.000000000 0.000000000 -0.483635237 -0.043743299 -0.006351831 0.070227197
 0.000000000 0.000000000 0.000000000 0.000000000 0.028002249 0.063543261 -0.437604824 0.192843728
 -0.483635237 -0.043743299 0.028002249 0.063543261 0.000000000 0.000000000 0.000000000 0.000000000
 -0.006351831 0.070227197 -0.437604824 0.192843728 0.000000000 0.000000000 0.000000000 0.000000000
2.600000 0.000000000 0.000000000 0.000000000 0.000000000 -0.399407755 0.258487224 0.038280715 0.059150368
 0.000000000 0.000000000 0.000000000 0.000000000 0.061476041 0.032124507 -0.216917959 0.415111657
 -0.399407755 0.258487224 0.061476041 0.032124507 0.000000000 0.000000000 0.000000000 0.000000000
 0.038280715 0.059150368 -0.216917959 0.415111657 0.000000000 0.000000000 0.000000000 0.000000000
2.650000 0.000000000 0.000000000 0.000000000 0.000000000 -0.151991091 0.440619265 0.066527277 0.022948505
 0.000000000 0.000000000 0.000000000 0.000000000 0.067985289 -0.013238013 0.087677170 0.450275880
 -0.151991091 0.440619265 0.067985289 -0.013238013 0.000000000 0.000000000 0.000000000 0.000000000
 0.066527277 0.022948505 0.087677170 0.450275880 0.000000000 0.000000000 0.000000000 0.000000000
2.700000 0.000000000 0.000000000 0.000000000 0.000000000 0.148719092 0.431740650 0.066435814 -0.022884743
 0.000000000 0.000000000 0.000000000 0.000000000 0.044802686 -0.052656288 0.342192839 0.291155319
 0.148719092 0.431740650 0.044802686 -0.052656288 0.000000000 0.000000000 0.000000000 0.000000000
 0.066435814 -0.022884743 0.342192839 0.291155319 0.000000000 0.000000000 0.000000000 0.000000000
2.750000 0.000000000 0.000000000 0.000000000 0.000000000 0.375312387 0.243480054 0.038171497 -0.058839464
 0.000000000 0.000000000 0.000000000 0.000000000 0.002195334 -0.068955384 0.439837621 0.014003122
 0.375312387 0.243480054 0.002195334 -0.068955384 0.000000000 0.000000000 0.000000000 0.000000000
 0.038171497 -0.058839464 0.439837621 0.014003122 0.000000000 0.000000000 0.000000000 0.000000000
2.800000 0.000000000 0.000000000 0.000000000 0.000000000 0.436614215 -0.038418075 -0.006134324 -0.069715440
 0.000000000 0.000000000 0.000000000 0.000000000 -0.041156368 -0.055160691 0.345460660 -0.257754316
 0.436614215 -0.038418075 -0.041156368 -0.055160691 0.000000000 0.000000000 0.000000000 0.000000000
 -0.006134324 -0.069715440 0.345460660 -0.257754316 0.000000000 0.000000000 0.000000000 0.000000000
2.850000 0.000000000 0.000000000 0.000000000 0.000000000 0.313995634 -0.292933069 -0.047623212 -0.051047431
 0.000000000 0.000000000 0.000000000 0.000000000 -0.066376633 -0.017463042 0.107416159 -0.408286423
 0.313995634 -0.292933069 -0.066376633 -0.017463042 0.000000000 0.000000000 0.000000000 0.000000000
 -0.047623212 -0.051047431 0.107416159 -0.408286423 0.000000000 0.000000000 0.000000000 0.000000000
2.900000 0.000000000 0.000000000 0.000000000 0.000000000 0.065968468 -0.415527724 -0.068760365 -0.010916277
 0.000000000 0.000000000 0.000000000 0.000000000 -0.062622449 0.027587728 -0.166716186 -0.378435512
 0.065968468 -0.415527724 -0.062622449 0.027587728 0.000000000 0.000000000 0.000000000 0.000000000
 -0.068760365 -0.010916277 -0.166716186 -0.378435512 0.000000000 0.000000000 0.000000000 0.000000000
2.950000 0.000000000 0.000000000 0.000000000 0.000000000 -0.199406171 -0.360789959 -0.060751049 0.033576694
 0.000000000 0.000000000 0.000000000 0.000000000 -0.031733097 0.060375951 -0.358562319 -0.188457366
 -0.199406171 -0.360789959 -0.031733097 0.060375951 0.000000000 0.000000000 0.000000000 0.000000000
 -0.060751049 0.033576694 -0.358562319 -0.188457366 0.000000000 0.000000000 0.000000000 0.000000000
3.000000 0.000000000 0.000000000 0.000000000 0.000000000 -0.371422045 -0.158707972 -0.027185472 0.063621780
 0.000000000 0.000000000 0.000000000 0.000000000 0.012685045 0.066774617 -0.389828214 0.074054912
 -0.371422045 -0.158707972 0.012685045 0.066774617 0.000000000 0.000000000 0.000000000 0.000000000
 -0.027185472 0.063621780 -0.389828214 0.074054912 0.000000000 0.000000000 0.000000000 0.000000000
3.050000 0.000000000 0.000000000 0.000000000 0.000000000 -0.382673286 0.100974288 0.017590148 0.066663304
 0.000000000 0.000000000 0.000000000 0.000000000 0.051277699 0.044226224 -0.253875718 0.294353930
 -0.382673286 0.100974288 0.051277699 0.044226224 0.000000000 0.000000000 0.000000000 0.000000000
 0.017590148 0.066663304 -0.253875718 0.294353930 0.000000000 0.000000000 0.000000000 0.000000000
3.100000 0.000000000 0.000000000 0.000000000 0.000000000 -0.235090114 0.308431369 0.054629028 0.041638905
 0.000000000 0.000000000 0.000000000 0.000000000 0.067392215 0.002737214 -0.015454105 0.380491364
 -0.235090114 0.308431369 0.067392215 0.002737214 0.000000000 0.000000000 0.000000000 0.000000000
 0.054629028 0.041638905 -0.015454105 0.380491364 0.000000000 0.000000000 0.000000000 0.000000000
3.150000 0.000000000 0.000000000 0.000000000 0.000000000 0.003806762 0.380006555 0.068415054 -0.000685356
 0.000000000 0.000000000 0.000000000 0.000000000 0.054262808 -0.039585071 0.219872462 0.301398907
 0.003806762 0.380006555 0.054262808 -0.039585071 0.000000000 0.000000000 0.000000000 0.000000000
 0.068415054 -0.000685356 0.219872462 0.301398907 0.000000000 0.000000000 0.000000000 0.000000000
3.200000 0.000000000 0.000000000 0.000000000 0.000000000 0.231573095 0.291658216 0.053360937 -0.042367938
 0.000000000 0.000000000 0.000000000 0.000000000 0.017833294 -0.064452716 0.352283248 0.097472552
 0.231573095 0.291658216 0.017833294 -0.064452716 0.000000000 0.000000000 0.000000000 0.000000000
 0.053360937 -0.042367938 0.352283248 0.097472552 0.000000000 0.000000000 0.000000000 0.000000000
3.250000 0.000000000 0.000000000 0.000000000 0.000000000 0.354599357 0.086369289 0.016054382 -0.065913170
 0.000000000 0.000000000 0.000000000 0.000000000 -0.025950417 -0.061303779 0.329801775 -0.139607931
 0.354599357 0.086369289 -0.025950417 -0.061303779 0.000000000 0.000000000 0.000000000 0.000000000
 0.016054382 -0.065913170 0.329801775 -0.139607931 0.000000000 0.000000000 0.000000000 0.000000000
3.300000 0.000000000 0.000000000 0.000000000 0.000000000 0.326353238 -0.146397580 -0.027640940 -0.061617891
 0.000000000 0.000000000 0.000000000 0.000000000 -0.058137675 -0.031776656 0.168302002 -0.307920608
 0.326353238 -0.146397580 -0.058137675 -0.031776656 0.000000000 0.000000000 0.000000000 0.000000000
 -0.027640940 -0.061617891 0.168302002 -0.307920608 0.000000000 0.000000000 0.000000000 0.000000000
3.350000 0.000000000 0.000000000 0.000000000 0.000000000 0.164593812 -0.309523469 -0.059347149 -0.031558749
 0.000000000 0.000000000 0.000000000 0.000000000 -0.064982882 0.011136354 -0.058081357 -0.338916489
 0.164593812 -0.309523469 -0.064982882 0.011136354 0.000000000 0.000000000 0.000000000 0.000000000
 -0.059347149 -0.031558749 -0.058081357 -0.338916489 0.000000000 0.000000000 0.000000000 0.000000000
3.400000 0.000000000 0.000000000 0.000000000 0.000000000 -0.058621257 -0.338564866 -0.065908466 0.011411808
 0.000000000 0.000000000 0.000000000 0.000000000 -0.043809319 0.048821811 -0.250792514 -0.225043867
 -0.058621257 -0.338564866 -0.043809319 0.048821811 0.000000000 0.000000000 0.000000000 0.000000000
 -0.065908466 0.011411808 -0.250792514 -0.225043867 0.000000000 0.000000000 0.000000000 0.000000000
3.450000 0.000000000 0.000000000 0.000000000 0.000000000 -0.248857057 -0.226936003 -0.044843992 0.049175731
 0.000000000 0.000000000 0.000000000 0.000000000 -0.004029903 0.065128315 -0.329586167 -0.020393592
 -0.248857057 -0.226936003 -0.004029903 0.065128315 0.000000000 0.000000000 0.000000000 0.000000000
 -0.044843992 0.049175731 -0.329586167 -0.020393592 0.000000000 0.000000000 0.000000000 0.000000000
3.500000 0.000000000 0.000000000 0.000000000 0.000000000 -0.329090365 -0.026233192 -0.005260957 0.065997699
 0.000000000 0.000000000 0.000000000 0.000000000 0.037050215 0.053286945 -0.265709572 0.184746876
 -0.329090365 -0.026233192 0.037050215 0.053286945 0.000000000 0.000000000 0.000000000 0.000000000
 -0.005260957 0.065997699 -0.265709572 0.184746876 0.000000000 0.000000000 0.000000000 0.000000000
3.550000 0.000000000 0.000000000 0.000000000 0.000000000 -0.270679969 0.177378511 0.036094514 0.055080302
 0.000000000 0.000000000 0.000000000 0.000000000 0.061772375 0.018706103 -0.091927007 0.303566685
 -0.270679969 0.177378511 0.061772375 0.018706103 0.000000000 0.000000000 0.000000000 0.000000000
 0.036094514 0.055080302 -0.091927007 0.303566685 0.000000000 0.000000000 0.000000000 0.000000000
3.600000 0.000000000 0.000000000 0.000000000 0.000000000 -0.103167235 0.300007633 0.061932035 0.021297314
 0.000000000 0.000000000 0.000000000 0.000000000 0.059716849 -0.023505140 0.113862260 0.289276952
 -0.103167235 0.300007633 0.059716849 -0.023505140 0.000000000 0.000000000 0.000000000 0.000000000
 0.061932035 0.021297314 0.113862260 0.289276952 0.000000000 0.000000000 0.000000000 0.000000000
3.650000 0.000000000 0.000000000 0.000000000 0.000000000 0.100231404 0.294425403 0.061648122 -0.020986904
 0.000000000 0.000000000 0.000000000 0.000000000 0.032085318 -0.055148549 0.263384080 0.153236343
 0.100231404 0.294425403 0.032085318 -0.055148549 0.000000000 0.000000000 0.000000000 0.000000000
 0.061648122 -0.020986904 0.263384080 0.153236343 0.000000000 0.000000000 0.000000000 0.000000000
3.700000 0.000000000 0.000000000 0.000000000 0.000000000 0.254474204 0.167987826 0.035670143 -0.054034459
 0.000000000 0.000000000 0.000000000 0.000000000 -0.008964471 -0.062786553 0.295692015 -0.042217998
 0.254474204 0.167987826 -0.008964471 -0.062786553 0.000000000 0.000000000 0.000000000 0.000000000
 0.035670143 -0.054034459 0.295692015 -0.042217998 0.000000000 0.000000000 0.000000000 0.000000000
3.750000 0.000000000 0.000000000 0.000000000 0.000000000 0.298100564 -0.022583046 -0.004862003 -0.064179372
 0.000000000 0.000000000 0.000000000 0.000000000 -0.045676238 -0.043443939 0.201788552 -0.212157142
 0.298100564 -0.022583046 -0.045676238 -0.043443939 0.000000000 0.000000000 0.000000000 0.000000000
 -0.004862003 -0.064179372 0.201788552 -0.212157142 0.000000000 0.000000000 0.000000000 0.000000000
3.800000 0.000000000 0.000000000 0.000000000 0.000000000 0.217523924 -0.196468183 -0.042880098 -0.047475611
 0.000000000 0.000000000 0.000000000 0.000000000 -0.062381157 -0.005745505 0.026324775 -0.285818206
 0.217523924 -0.196468183 -0.062381157 -0.005745505 0.000000000 0.000000000 0.000000000 0.000000000
 -0.042880098 -0.047475611 0.026324775 -0.285818206 0.000000000 0.000000000 0.000000000 0.000000000
3.850000 0.000000000 0.000000000 0.000000000 0.000000000 0.050701313 -0.282890587 -0.062580666 -0.011216075
 0.000000000 0.000000000 0.000000000 0.000000000 -0.052184302 0.033934131 -0.153396360 -0.235894707
 0.050701313 -0.282890587 -0.052184302 0.033934131 0.000000000 0.000000000 0.000000000 0.000000000
 -0.062580666 -0.011216075 -0.153396360 -0.235894707 0.000000000 0.000000000 0.000000000 0.000000000
3.900000 0.000000000 0.000000000 0.000000000 0.000000000 -0.130490242 -0.249767259 -0.055994395 0.029254123
 0.000000000 0.000000000 0.000000000 0.000000000 -0.019800044 0.058588439 -0.261338194 -0.088319602
 -0.130490242 -0.249767259 -0.019800044 0.058588439 0.000000000 0.000000000 0.000000000 0.000000000
 -0.055994395 0.029254123 -0.261338194 -0.088319602 0.000000000 0.000000000 0.000000000 0.000000000
3.950000 0.000000000 0.000000000 0.000000000 0.000000000 -0.251089516 -0.115348496 -0.026202301 0.057036921
 0.000000000 0.000000000 0.000000000 0.000000000 0.020623939 0.057869319 -0.254753919 0.090791278
 -0.251089516 -0.115348496 0.020623939 0.057869319 0.000000000 0.000000000 0.000000000 0.000000000
 -0.026202301 0.057036921 -0.254753919 0.090791278 0.000000000 0.000000000 0.000000000 0.000000000
4.000000 0.000000000 0.000000000 0.000000000 0.000000000 -0.263931720 0.061247552 0.014095081 0.060739390
 0.000000000 0.000000000 0.000000000 0.000000000 0.051691457 0.032425470 -0.140898847 0.224615612
 -0.263931720 0.061247552 0.051691457 0.032425470 0.000000000 0.000000000 0.000000000 0.000000000
 0.014095081 0.060739390 -0.140898847 0.224615612 0.000000000 0.000000000 0.000000000 0.000000000
4.050000 0.000000000 0.000000000 0.000000000 0.000000000 -0.167914592 0.205889011 0.047995218 0.039142922
 0.000000000 0.000000000 0.000000000 0.000000000 0.060246964 -0.006526790 0.027998506 0.258446327
 -0.167914592 0.205889011 0.060246964 -0.006526790 0.000000000 0.000000000 0.000000000 0.000000000
 0.047995218 0.039142922 0.027998506 0.258446327 0.000000000 0.000000000 0.000000000 0.000000000
4.100000 0.000000000 0.000000000 0.000000000 0.000000000 -0.006659175 0.260431259 0.061486556 0.001572199
 0.000000000 0.000000000 0.000000000 0.000000000 0.042945190 -0.042149157 0.178526147 0.181897812
 -0.006659175 0.260431259 0.042945190 -0.042149157 0.000000000 0.000000000 0.000000000 0.000000000
 0.061486556 0.001572199 0.178526147 0.181897812 0.000000000 0.000000000 0.000000000 0.000000000
4.150000 0.000000000 0.000000000 0.000000000 0.000000000 0.151120303 0.205956447 0.049240517 -0.036130172
 0.000000000 0.000000000 0.000000000 0.000000000 0.007544926 -0.059263158 0.247877767 0.031557878
 0.151120303 0.205956447 0.007544926 -0.059263158 0.000000000 0.000000000 0.000000000 0.000000000
 0.049240517 -0.036130172 0.247877767 0.031557878 0.000000000 0.000000000 0.000000000 0.000000000
4.200000 0.000000000 0.000000000 0.000000000 0.000000000 0.240781513 0.069025402 0.016709204 -0.058286767
 0.000000000 0.000000000 0.000000000 0.000000000 -0.030566284 -0.050819339 0.209933712 -0.126268730
 0.240781513 0.069025402 -0.030566284 -0.050819339 0.000000000 0.000000000 0.000000000 0.000000000
 0.016709204 -0.058286767 0.209933712 -0.126268730 0.000000000 0.000000000 0.000000000 0.000000000
4.250000 0.000000000 0.000000000 0.000000000 0.000000000 0.228129399 -0.090968312 -0.022293463 -0.055907316
 0.000000000 0.000000000 0.000000000 0.000000000 -0.055062313 -0.020797238 0.084862978 -0.224681369
 0.228129399 -0.090968312 -0.055062313 -0.020797238 0.000000000 0.000000000 0.000000000 0.000000000
 -0.022293463 -0.055907316 0.084862978 -0.224681369 0.000000000 0.000000000 0.000000000 0.000000000
4.300000 0.000000000 0.000000000 0.000000000 0.000000000 0.122291504 -0.207435126 -0.051457970 -0.030336581
 0.000000000 0.000000000 0.000000000 0.000000000 -0.055675612 0.017654553 -0.071168263 -0.224437103
 0.122291504 -0.207435126 -0.055675612 0.017654553 0.000000000 0.000000000 0.000000000 0.000000000
 -0.051457970 -0.030336581 -0.071168263 -0.224437103 0.000000000 0.000000000 0.000000000 0.000000000
4.350000 0.000000000 0.000000000 0.000000000 0.000000000 -0.029677879 -0.234208361 -0.058803001 0.007451264
 0.000000000 0.000000000 0.000000000 0.000000000 -0.032502667 0.047975596 -0.191083543 -0.129455914
 -0.029677879 -0.234208361 -0.032502667 0.047975596 0.000000000 0.000000000 0.000000000 0.000000000
 -0.058803001 0.007451264 -0.191083543 -0.129455914 0.000000000 0.000000000 0.000000000 0.000000000
4.400000 0.000000000 0.000000000 0.000000000 0.000000000 -0.163564690 -0.163736239 -0.041601960 0.041558373
 0.000000000 0.000000000 0.000000000 0.000000000 0.004187566 0.057329452 -0.225636215 0.016481346
 -0.163564690 -0.163736239 0.004187566 0.057329452 0.000000000 0.000000000 0.000000000 0.000000000
 -0.041601960 0.041558373 -0.225636215 0.016481346 0.000000000 0.000000000 0.000000000 0.000000000
4.450000 0.000000000 0.000000000 0.000000000 0.000000000 -0.225034566 -0.028728282 -0.007385790 0.057854419
 0.000000000 0.000000000 0.000000000 0.000000000 0.038497757 0.042043725 -0.163536191 0.149743550
 -0.225034566 -0.028728282 0.038497757 0.042043725 0.000000000 0.000000000 0.000000000 0.000000000
 -0.007385790 0.057854419 -0.163536191 0.149743550 0.000000000 0.000000000 0.000000000 0.000000000
4.500000 0.000000000 0.000000000 0.000000000 0.000000000 -0.191604914 0.112810076 0.029342778 0.049837928
 0.000000000 0.000000000 0.000000000 0.000000000 0.055792400 0.009047633 -0.034784171 0.214497244
 -0.191604914 0.112810076 0.055792400 0.009047633 0.000000000 0.000000000 0.000000000 0.000000000
 0.029342778 0.049837928 -0.034784171 0.214497244 0.000000000 0.000000000 0.000000000 0.000000000
4.550000 0.000000000 0.000000000 0.000000000 0.000000000 -0.080701921 0.202395106 0.053255967 0.021234994
 0.000000000 0.000000000 0.000000000 0.000000000 0.048949145 -0.027254080 0.103576983 0.186027370
 -0.080701921 0.202395106 0.048949145 -0.027254080 0.000000000 0.000000000 0.000000000 0.000000000
 0.053255967 0.021234994 0.103576983 0.186027370 0.000000000 0.000000000 0.000000000 0.000000000
4.600000 0.000000000 0.000000000 0.000000000 0.000000000 0.059008598 0.205167021 0.054606061 -0.015705385
 0.000000000 0.000000000 0.000000000 0.000000000 0.021299314 -0.051268249 0.192626125 0.080026224
 0.059008598 0.205167021 0.021299314 -0.051268249 0.000000000 0.000000000 0.000000000 0.000000000
 0.054606061 -0.015705385 0.192626125 0.080026224 0.000000000 0.000000000 0.000000000 0.000000000
4.650000 0.000000000 0.000000000 0.000000000 0.000000000 0.168846583 0.123376649 0.033211044 -0.045450832
 0.000000000 0.000000000 0.000000000 0.000000000 -0.014959648 -0.052920671 0.196596500 -0.055574022
 0.168846583 0.123376649 -0.014959648 -0.052920671 0.000000000 0.000000000 0.000000000 0.000000000
 0.033211044 -0.045450832 0.196596500 -0.055574022 0.000000000 0.000000000 0.000000000 0.000000000
4.700000 0.000000000 0.000000000 0.000000000 0.000000000 0.204703060 -0.005926791 -0.001613384 -0.055724026
 0.000000000 0.000000000 0.000000000 0.000000000 -0.044137372 -0.031897046 0.117174284 -0.162139310
 0.204703060 -0.005926791 -0.044137372 -0.031897046 0.000000000 0.000000000 0.000000000 0.000000000
 -0.001613384 -0.055724026 0.117174284 -0.162139310 0.000000000 0.000000000 0.000000000 0.000000000
4.750000 0.000000000 0.000000000 0.000000000 0.000000000 0.154718847 -0.127497480 -0.035094717 -0.042587620
 0.000000000 0.000000000 0.000000000 0.000000000 -0.053848847 0.002373610 -0.008623216 -0.195630362
 0.154718847 -0.127497480 -0.053848847 0.002373610 0.000000000 0.000000000 0.000000000 0.000000000
 -0.035094717 -0.042587620 -0.008623216 -0.195630362 0.000000000 0.000000000 0.000000000 0.000000000
4.800000 0.000000000 0.000000000 0.000000000 0.000000000 0.042988282 -0.191425063 -0.053274009 -0.011963732
 0.000000000 0.000000000 0.000000000 0.000000000 -0.040292049 0.034930428 -0.125512599 -0.144778068
 0.042988282 -0.191425063 -0.040292049 0.034930428 0.000000000 0.000000000 0.000000000 0.000000000
 -0.053274009 -0.011963732 -0.125512599 -0.144778068 0.000000000 0.000000000 0.000000000 0.000000000
4.850000 0.000000000 0.000000000 0.000000000 0.000000000 -0.081766070 -0.173614822 -0.048846702 0.023004965
 0.000000000 0.000000000 0.000000000 0.000000000 -0.009748571 0.051816996 -0.184172074 -0.034649144
 -0.081766070 -0.173614822 -0.009748571 0.051816996 0.000000000 0.000000000 0.000000000 0.000000000
 -0.048846702 0.023004965 -0.184172074 -0.034649144 0.000000000 0.000000000 0.000000000 0.000000000
4.900000 0.000000000 0.000000000 0.000000000 0.000000000 -0.167339642 -0.084822313 -0.024123863 0.047592177
 0.000000000 0.000000000 0.000000000 0.000000000 0.024293303 0.046089420 -0.162055774 0.085418084
 -0.167339642 -0.084822313 0.024293303 0.046089420 0.000000000 0.000000000 0.000000000 0.000000000
 -0.024123863 0.047592177 -0.162055774 0.085418084 0.000000000 0.000000000 0.000000000 0.000000000
4.950000 0.000000000 0.000000000 0.000000000 0.000000000 -0.179891504 0.035131721 0.010099080 0.051712202
 0.000000000 0.000000000 0.000000000 0.000000000 0.047093317 0.020701714 -0.072015161 0.163823765
 -0.179891504 0.035131721 0.047093317 0.020701714 0.000000000 0.000000000 0.000000000 0.000000000
 0.010099080 0.051712202 -0.072015161 0.163823765 0.000000000 0.000000000 0.000000000 0.000000000
5.000000 0.000000000 0.000000000 0.000000000 0.000000000 -0.117358634 0.135065987 0.039240297 0.034095835
 0.000000000 0.000000000 0.000000000 0.000000000 0.049070204 -0.012945781 0.044559670 0.168900750
 -0.117358634 0.135065987 0.049070204 -0.012945781 0.000000000 0.000000000 0.000000000 0.000000000
 0.039240297 0.034095835 0.044559670 0.168900750 0.000000000 0.000000000 0.000000000 0.000000000
5.050000 0.000000000 0.000000000 0.000000000 0.000000000 -0.009102662 0.174272521 0.051165623 0.002672500
 0.000000000 0.000000000 0.000000000 0.000000000 0.029873225 -0.040111824 0.136622761 0.101749610
 -0.009102662 0.174272521 0.029873225 -0.040111824 0.000000000 0.000000000 0.000000000 0.000000000
 0.051165623 0.002672500 0.136622761 0.101749610 0.000000000 0.000000000 0.000000000 0.000000000
5.100000 0.000000000 0.000000000 0.000000000 0.000000000 0.097623760 0.139185251 0.041291975 -0.028961961
 0.000000000 0.000000000 0.000000000 0.000000000 -0.001636869 -0.049201903 0.165847703 -0.005517490
 0.097623760 0.139185251 -0.001636869 -0.049201903 0.000000000 0.000000000 0.000000000 0.000000000
 0.041291975 -0.028961961 0.165847703 -0.005517490 0.000000000 0.000000000 0.000000000 0.000000000
5.150000 0.000000000 0.000000000 0.000000000 0.000000000 0.158275423 0.048020494 0.014394050 -0.047442751
 0.000000000 0.000000000 0.000000000 0.000000000 -0.031443503 -0.036778098 0.122696701 -0.104899772
 0.158275423 0.048020494 -0.031443503 -0.036778098 0.000000000 0.000000000 0.000000000 0.000000000
 0.014394050 -0.047442751 0.122696701 -0.104899772 0.000000000 0.000000000 0.000000000 0.000000000
5.200000 0.000000000 0.000000000 0.000000000 0.000000000 0.149738291 -0.058207199 -0.017627012 -0.045345569
 0.000000000 0.000000000 0.000000000 0.000000000 -0.046636518 -0.008900005 0.029389233 -0.154001208
 0.149738291 -0.058207199 -0.046636518 -0.008900005 0.000000000 0.000000000 0.000000000 0.000000000
 -0.017627012 -0.045345569 0.029389233 -0.154001208 0.000000000 0.000000000 0.000000000 0.000000000
5.250000 0.000000000 0.000000000 0.000000000 0.000000000 0.079259312 -0.134058899 -0.041011505 -0.024247131
 0.000000000 0.000000000 0.000000000 0.000000000 -0.041083846 0.021759512 -0.071127754 -0.134295368
 0.079259312 -0.134058899 -0.041083846 0.021759512 0.000000000 0.000000000 0.000000000 0.000000000
 -0.041011505 -0.024247131 -0.071127754 -0.134295368 0.000000000 0.000000000 0.000000000 0.000000000
5.300000 0.000000000 0.000000000 0.000000000 0.000000000 -0.019961457 -0.149279610 -0.046129828 0.006168415
 0.000000000 0.000000000 0.000000000 0.000000000 -0.017988706 0.041695604 -0.134930126 -0.058212813
 -0.019961457 -0.149279610 -0.017988706 0.041695604 0.000000000 0.000000000 0.000000000 0.000000000
 -0.046129828 0.006168415 -0.134930126 -0.058212813 0.000000000 0.000000000 0.000000000 0.000000000
5.350000 0.000000000 0.000000000 0.000000000 0.000000000 -0.104230135 -0.101125326 -0.031562874 0.032531936
 0.000000000 0.000000000 0.000000000 0.000000000 0.011788256 0.042622849 -0.136560739 0.037768779
 -0.104230135 -0.101125326 0.011788256 0.042622849 0.000000000 0.000000000 0.000000000 0.000000000
 -0.031562874 0.032531936 -0.136560739 0.037768779 0.000000000 0.000000000 0.000000000 0.000000000
5.400000 0.000000000 0.000000000 0.000000000 0.000000000 -0.138809263 -0.014225386 -0.004484155 0.043755739
 0.000000000 0.000000000 0.000000000 0.000000000 0.034841817 0.025046308 -0.079456082 0.110531030
 -0.138809263 -0.014225386 0.034841817 0.025046308 0.000000000 0.000000000 0.000000000 0.000000000
 -0.004484155 0.043755739 -0.079456082 0.110531030 0.000000000 0.000000000 0.000000000 0.000000000
5.450000 0.000000000 0.000000000 0.000000000 0.000000000 -0.112648522 0.071621454 0.022799487 0.035859764
 0.000000000 0.000000000 0.000000000 0.000000000 0.041390181 -0.002267321 0.007122479 0.130021565
 -0.112648522 0.071621454 0.041390181 -0.002267321 0.000000000 0.000000000 0.000000000 0.000000000
 0.022799487 0.035859764 0.007122479 0.130021565 0.000000000 0.000000000 0.000000000 0.000000000
5.500000 0.000000000 0.000000000 0.000000000 0.000000000 -0.041907598 0.119916495 0.038547153 0.013471196
 0.000000000 0.000000000 0.000000000 0.000000000 0.029612194 -0.026636014 0.082862084 0.092120693
 -0.041907598 0.119916495 0.029612194 -0.026636014 0.000000000 0.000000000 0.000000000 0.000000000
 0.038547153 0.013471196 0.082862084 0.092120693 0.000000000 0.000000000 0.000000000 0.000000000
5.550000 0.000000000 0.000000000 0.000000000 0.000000000 0.039041785 0.113581365 0.036865377 -0.012671886
 0.000000000 0.000000000 0.000000000 0.000000000 0.006110994 -0.037526618 0.115618635 0.018827830
 0.039041785 0.113581365 0.006110994 -0.037526618 0.000000000 0.000000000 0.000000000 0.000000000
 0.036865377 -0.012671886 0.115618635 0.018827830 0.000000000 0.000000000 0.000000000 0.000000000
5.600000 0.000000000 0.000000000 0.000000000 0.000000000 0.094579633 0.061249402 0.020071465 -0.030993801
 0.000000000 0.000000000 0.000000000 0.000000000 -0.017679079 -0.031373598 0.095738609 -0.053948880
 0.094579633 0.061249402 -0.017679079 -0.031373598 0.000000000 0.000000000 0.000000000 0.000000000
 0.020071465 -0.030993801 0.095738609 -0.053948880 0.000000000 0.000000000 0.000000000 0.000000000
5.650000 0.000000000 0.000000000 0.000000000 0.000000000 0.104363115 -0.009006715 -0.002979733 -0.034526925
 0.000000000 0.000000000 0.000000000 0.000000000 -0.031291961 -0.012765060 0.038584421 -0.094584921
 0.104363115 -0.009006715 -0.031291961 -0.012765060 0.000000000 0.000000000 0.000000000 0.000000000
 -0.002979733 -0.034526925 0.038584421 -0.094584921 0.000000000 0.000000000 0.000000000 0.000000000
5.700000 0.000000000 0.000000000 0.000000000 0.000000000 0.071194870 -0.064946696 -0.021690534 -0.023777264
 0.000000000 0.000000000 0.000000000 0.000000000 -0.030198755 0.008542296 -0.025577696 -0.090422365
 0.071194870 -0.064946696 -0.030198755 0.008542296 0.000000000 0.000000000 0.000000000 0.000000000
 -0.021690534 -0.023777264 -0.025577696 -0.090422365 0.000000000 0.000000000 0.000000000 0.000000000
5.750000 0.000000000 0.000000000 0.000000000 0.000000000 0.016530811 -0.086102758 -0.029026978 -0.005572870
 0.000000000 0.000000000 0.000000000 0.000000000 -0.017303361 0.023047101 -0.068364644 -0.051326980
 0.016530811 -0.086102758 -0.017303361 0.023047101 0.000000000 0.000000000 0.000000000 0.000000000
 -0.029026978 -0.005572870 -0.068364644 -0.051326980 0.000000000 0.000000000 0.000000000 0.000000000
5.800000 0.000000000 0.000000000 0.000000000 0.000000000 -0.033178248 -0.071651237 -0.024380907 0.011289628
 0.000000000 0.000000000 0.000000000 0.000000000 -0.000291219 0.026194175 -0.076980114 -0.000855843
 -0.033178248 -0.071651237 -0.000291219 0.026194175 0.000000000 0.000000000 0.000000000 0.000000000
 -0.024380907 0.011289628 -0.076980114 -0.000855843 0.000000000 0.000000000 0.000000000 0.000000000
5.850000 0.000000000 0.000000000 0.000000000 0.000000000 -0.060642729 -0.036355282 -0.012485488 0.020826522
 0.000000000 0.000000000 0.000000000 0.000000000 0.013279321 0.019598080 -0.057065750 0.038666767
 -0.060642729 -0.036355282 0.013279321 0.019598080 0.000000000 0.000000000 0.000000000 0.000000000
 -0.012485488 0.020826522 -0.057065750 0.038666767 0.000000000 0.000000000 0.000000000 0.000000000
5.900000 0.000000000 0.000000000 0.000000000 0.000000000 -0.063599395 0.001474104 0.000510915 0.022043157
 0.000000000 0.000000000 0.000000000 0.000000000 0.019776891 0.008419873 -0.024293202 0.057060714
 -0.063599395 0.001474104 0.019776891 0.008419873 0.000000000 0.000000000 0.000000000 0.000000000
 0.000510915 0.022043157 -0.024293202 0.057060714 0.000000000 0.000000000 0.000000000 0.000000000
5.950000 0.000000000 0.000000000 0.000000000 0.000000000 -0.049885472 0.030641688 0.010717360 0.017448143
 0.000000000 0.000000000 0.000000000 0.000000000 0.019779801 -0.002680595 0.007664010 0.056551846
 -0.049885472 0.030641688 0.019779801 -0.002680595 0.000000000 0.000000000 0.000000000 0.000000000
 0.010717360 0.017448143 0.007664010 0.056551846 0.000000000 0.000000000 0.000000000 0.000000000
6.000000 0.000000000 0.000000000 0.000000000 0.000000000 -0.027740468 0.048883633 0.017253014 0.009790734
 0.000000000 0.000000000 0.000000000 0.000000000 0.015415892 -0.011672083 0.033070966 0.043678446
 -0.027740468 0.048883633 0.015415892 -0.011672083 0.000000000 0.000000000 0.000000000 0.000000000
 0.017253014 0.009790734 0.033070966 0.043678446 0.000000000 0.000000000 0.000000000 0.000000000
6.050000 0.000000000 0.000000000 0.000000000 0.000000000 -0.000641796 0.056767007 0.020216055 0.000228558
 0.000000000 0.000000000 0.000000000 0.000000000 0.007824449 -0.018085183 0.050783485 0.021971179
 -0.000641796 0.056767007 0.007824449 -0.018085183 0.000000000 0.000000000 0.000000000 0.000000000
 0.020216055 0.000228558 0.050783485 0.021971179 0.000000000 0.000000000 0.000000000 0.000000000
6.100000 0.000000000 0.000000000 0.000000000 0.000000000 0.029585408 0.051861903 0.018634633 -0.010630409
 0.000000000 0.000000000 0.000000000 0.000000000 -0.002730172 -0.020729834 0.057693042 -0.007598322
 0.029585408 0.051861903 -0.002730172 -0.020729834 0.000000000 0.000000000 0.000000000 0.000000000
 0.018634633 -0.010630409 0.057693042 -0.007598322 0.000000000 0.000000000 0.000000000 0.000000000
6.150000 0.000000000 0.000000000 0.000000000 0.000000000 0.056622821 0.030050437 0.010893532 -0.020526242
 0.000000000 0.000000000 0.000000000 0.000000000 -0.014675023 -0.017248332 0.047580520 -0.040481898
 0.056622821 0.030050437 -0.014675023 -0.017248332 0.000000000 0.000000000 0.000000000 0.000000000
 0.010893532 -0.020526242 0.047580520 -0.040481898 0.000000000 0.000000000 0.000000000 0.000000000
6.200000 0.000000000 0.000000000 0.000000000 0.000000000 0.068681963 -0.007490890 -0.002739498 -0.025117719
 0.000000000 0.000000000 0.000000000 0.000000000 -0.023796393 -0.006323451 0.017290861 -0.065068925
 0.068681963 -0.007490890 -0.023796393 -0.006323451 0.000000000 0.000000000 0.000000000 0.000000000
 -0.002739498 -0.025117719 0.017290861 -0.065068925 0.000000000 0.000000000 0.000000000 0.000000000
6.250000 0.000000000 0.000000000 0.000000000 0.000000000 0.055193416 -0.049363191 -0.018211043 -0.020361926
 0.000000000 0.000000000 0.000000000 0.000000000 -0.024809410 0.009647824 -0.026151571 -0.067248848
 0.055193416 -0.049363191 -0.024809410 0.009647824 0.000000000 0.000000000 0.000000000 0.000000000
 -0.018211043 -0.020361926 -0.026151571 -0.067248848 0.000000000 0.000000000 0.000000000 0.000000000
6.300000 0.000000000 0.000000000 0.000000000 0.000000000 0.015856947 -0.076997503 -0.028653473 -0.005900926
 0.000000000 0.000000000 0.000000000 0.000000000 -0.014956733 0.024266299 -0.065208306 -0.040191677
 0.015856947 -0.076997503 -0.014956733 0.024266299 0.000000000 0.000000000 0.000000000 0.000000000
 -0.028653473 -0.005900926 -0.065208306 -0.040191677 0.000000000 0.000000000 0.000000000 0.000000000
6.350000 0.000000000 0.000000000 0.000000000 0.000000000 -0.035630496 -0.074532177 -0.027976210 0.013374173
 0.000000000 0.000000000 0.000000000 0.000000000 0.003203547 0.030042344 -0.080036620 0.008534655
 -0.035630496 -0.074532177 0.003203547 0.030042344 0.000000000 0.000000000 0.000000000 0.000000000
 -0.027976210 0.013374173 -0.080036620 0.008534655 0.000000000 0.000000000 0.000000000 0.000000000
6.400000 0.000000000 0.000000000 0.000000000 0.000000000 -0.076702409 -0.038860949 -0.014712239 0.029038513
 0.000000000 0.000000000 0.000000000 0.000000000 0.022116825 0.022731397 -0.060042775 0.058419443
 -0.076702409 -0.038860949 0.022116825 0.022731397 0.000000000 0.000000000 0.000000000 0.000000000
 -0.014712239 0.029038513 -0.060042775 0.058419443 0.000000000 0.000000000 0.000000000 0.000000000
6.450000 0.000000000 0.000000000 0.000000000 0.000000000 -0.087134907 0.016849599 0.006433562 0.033270100
 0.000000000 0.000000000 0.000000000 0.000000000 0.032736258 0.004265848 -0.011172321 0.085736765
 -0.087134907 0.016849599 0.032736258 0.004265848 0.000000000 0.000000000 0.000000000 0.000000000
 0.006433562 0.033270100 -0.011172321 0.085736765 0.000000000 0.000000000 0.000000000 0.000000000
6.500000 0.000000000 0.000000000 0.000000000 0.000000000 -0.059807979 0.068521699 0.026385378 0.023030021
 0.000000000 0.000000000 0.000000000 0.000000000 0.029225397 -0.017604302 0.045717620 0.075897105
 -0.059807979 0.068521699 0.029225397 -0.017604302 0.000000000 0.000000000 0.000000000 0.000000000
 0.026385378 0.023030021 0.045717620 0.075897105 0.000000000 0.000000000 0.000000000 0.000000000
6.550000 0.000000000 0.000000000 0.000000000 0.000000000 -0.005037922 0.092519161 0.035926693 0.001956307
 0.000000000 0.000000000 0.000000000 0.000000000 0.012211678 -0.032852747 0.084603071 0.031447764
 -0.005037922 0.092519161 0.012211678 -0.032852747 0.000000000 0.000000000 0.000000000 0.000000000
 0.035926693 0.001956307 0.084603071 0.031447764 0.000000000 0.000000000 0.000000000 0.000000000
6.600000 0.000000000 0.000000000 0.000000000 0.000000000 0.053737168 0.077038318 0.030166172 -0.021042057
 0.000000000 0.000000000 0.000000000 0.000000000 -0.011172670 -0.034039815 0.086930820 -0.028532746
 0.053737168 0.077038318 -0.011172670 -0.034039815 0.000000000 0.000000000 0.000000000 0.000000000
 0.030166172 -0.021042057 0.086930820 -0.028532746 0.000000000 0.000000000 0.000000000 0.000000000
6.650000 0.000000000 0.000000000 0.000000000 0.000000000 0.090639394 0.027884500 0.011009866 -0.035787895
 0.000000000 0.000000000 0.000000000 0.000000000 -0.030489919 -0.020011919 0.050683848 -0.077221301
 0.090639394 0.027884500 -0.030489919 -0.020011919 0.000000000 0.000000000 0.000000000 0.000000000
 0.011009866 -0.035787895 0.050683848 -0.077221301 0.000000000 0.000000000 0.000000000 0.000000000
6.700000 0.000000000 0.000000000 0.000000000 0.000000000 0.089158498 -0.034001754 -0.013536441 -0.035494897
 0.000000000 0.000000000 0.000000000 0.000000000 -0.036845183 0.003381712 -0.008494413 -0.092550238
 0.089158498 -0.034001754 -0.036845183 0.003381712 0.000000000 0.000000000 0.000000000 0.000000000
 -0.013536441 -0.035494897 -0.008494413 -0.092550238 0.000000000 0.000000000 0.000000000 0.000000000
6.750000 0.000000000 0.000000000 0.000000000 0.000000000 0.049581512 -0.081912036 -0.032878618 -0.019901490
 0.000000000 0.000000000 0.000000000 0.000000000 -0.027047790 0.025874582 -0.064462554 -0.067385422
 0.049581512 -0.081912036 -0.027047790 0.025874582 0.000000000 0.000000000 0.000000000 0.000000000
 -0.032878618 -0.019901490 -0.064462554 -0.067385422 0.000000000 0.000000000 0.000000000 0.000000000
6.800000 0.000000000 0.000000000 0.000000000 0.000000000 -0.011200872 -0.095199226 -0.038524846 0.004532724
 0.000000000 0.000000000 0.000000000 0.000000000 -0.005143540 0.037425965 -0.092483766 -0.012710266
 -0.011200872 -0.095199226 -0.005143540 0.037425965 0.000000000 0.000000000 0.000000000 0.000000000
 -0.038524846 0.004532724 -0.092483766 -0.012710266 0.000000000 0.000000000 0.000000000 0.000000000
6.850000 0.000000000 0.000000000 0.000000000 0.000000000 -0.067208417 -0.068238664 -0.027839347 0.027419037
 0.000000000 0.000000000 0.000000000 0.000000000 0.019356814 0.032761618 -0.080303933 0.047446628
 -0.067208417 -0.068238664 0.019356814 0.032761618 0.000000000 0.000000000 0.000000000 0.000000000
 -0.027839347 0.027419037 -0.080303933 0.047446628 0.000000000 0.000000000 0.000000000 0.000000000
6.900000 0.000000000 0.000000000 0.000000000 0.000000000 -0.094702140 -0.012678445 -0.005214291 0.038948351
 0.000000000 0.000000000 0.000000000 0.000000000 0.035709018 0.013754276 -0.033443247 0.086825766
 -0.094702140 -0.012678445 0.035709018 0.013754276 0.000000000 0.000000000 0.000000000 0.000000000
 -0.005214291 0.038948351 -0.033443247 0.086825766 0.000000000 0.000000000 0.000000000 0.000000000
6.950000 0.000000000 0.000000000 0.000000000 0.000000000 -0.082315893 0.047799652 0.019816859 0.034126661
 0.000000000 0.000000000 0.000000000 0.000000000 0.036698960 -0.011395756 0.027487360 0.088520459
 -0.082315893 0.047799652 0.036698960 -0.011395756 0.000000000 0.000000000 0.000000000 0.000000000
 0.019816859 0.034126661 0.027487360 0.088520459 0.000000000 0.000000000 0.000000000 0.000000000
7.000000 0.000000000 0.000000000 0.000000000 0.000000000 -0.035681140 0.087744672 0.036668408 0.014911112
 0.000000000 0.000000000 0.000000000 0.000000000 0.021816910 -0.031775014 0.076035157 0.052206183
 -0.035681140 0.087744672 0.021816910 -0.031775014 0.000000000 0.000000000 0.000000000 0.000000000
 0.036668408 0.014911112 0.076035157 0.052206183 0.000000000 0.000000000 0.000000000 0.000000000
7.050000 0.000000000 0.000000000 0.000000000 0.000000000 0.025261087 0.090716555 0.038212002 -0.010640579
 0.000000000 0.000000000 0.000000000 0.000000000 -0.002535097 -0.038538371 0.091491367 -0.006018404
 0.025261087 0.090716555 -0.002535097 -0.038538371 0.000000000 0.000000000 0.000000000 0.000000000
 0.038212002 -0.010640579 0.091491367 -0.006018404 0.000000000 0.000000000 0.000000000 0.000000000
7.100000 0.000000000 0.000000000 0.000000000 0.000000000 0.074914476 0.056015184 0.023781650 -0.031805481
 0.000000000 0.000000000 0.000000000 0.000000000 -0.025855117 -0.028750677 0.067719205 -0.060899017
 0.074914476 0.056015184 -0.025855117 -0.028750677 0.000000000 0.000000000 0.000000000 0.000000000
 0.023781650 -0.031805481 0.067719205 -0.060899017 0.000000000 0.000000000 0.000000000 0.000000000
7.150000 0.000000000 0.000000000 0.000000000 0.000000000 0.092843317 -0.001349905 -0.000577622 -0.039727498
 0.000000000 0.000000000 0.000000000 0.000000000 -0.038110261 -0.006629535 0.015493249 -0.089063829
 0.092843317 -0.001349905 -0.038110261 -0.006629535 0.000000000 0.000000000 0.000000000 0.000000000
 -0.000577622 -0.039727498 0.015493249 -0.089063829 0.000000000 0.000000000 0.000000000 0.000000000
7.200000 0.000000000 0.000000000 0.000000000 0.000000000 0.072170078 -0.057243282 -0.024686022 -0.031123165
 0.000000000 0.000000000 0.000000000 0.000000000 -0.034062288 0.018315443 -0.042470840 -0.078985474
 0.072170078 -0.057243282 -0.034062288 0.018315443 0.000000000 0.000000000 0.000000000 0.000000000
 -0.024686022 -0.031123165 -0.042470840 -0.078985474 0.000000000 0.000000000 0.000000000 0.000000000
7.250000 0.000000000 0.000000000 0.000000000 0.000000000 0.022130264 -0.088616197 -0.038513030 -0.009617920
 0.000000000 0.000000000 0.000000000 0.000000000 -0.015488132 0.035405102 -0.081465039 -0.035637273
 0.022130264 -0.088616197 -0.015488132 0.035405102 0.000000000 0.000000000 0.000000000 0.000000000
 -0.038513030 -0.009617920 -0.081465039 -0.035637273 0.000000000 0.000000000 0.000000000 0.000000000
7.300000 0.000000000 0.000000000 0.000000000 0.000000000 -0.036109415 -0.083013140 -0.036357306 0.015814858
 0.000000000 0.000000000 0.000000000 0.000000000 0.009631699 0.037375422 -0.085337765 0.021991663
 -0.036109415 -0.083013140 0.009631699 0.037375422 0.000000000 0.000000000 0.000000000 0.000000000
 -0.036357306 0.015814858 -0.085337765 0.021991663 0.000000000 0.000000000 0.000000000 0.000000000
7.350000 0.000000000 0.000000000 0.000000000 0.000000000 -0.078453204 -0.043464976 -0.019183026 0.034624887
 0.000000000 0.000000000 0.000000000 0.000000000 0.030571091 0.023455522 -0.053145612 0.069268097
 -0.078453204 -0.043464976 0.030571091 0.023455522 0.000000000 0.000000000 0.000000000 0.000000000
 -0.019183026 0.034624887 -0.053145612 0.069268097 0.000000000 0.000000000 0.000000000 0.000000000
7.400000 0.000000000 0.000000000 0.000000000 0.000000000 -0.087856147 0.013118526 0.005834161 0.039071989
 0.000000000 0.000000000 0.000000000 0.000000000 0.038452926 -0.000356391 0.000801370 0.086464139
 -0.087856147 0.013118526 0.038452926 -0.000356391 0.000000000 0.000000000 0.000000000 0.000000000
 0.005834161 0.039071989 0.000801370 0.086464139 0.000000000 0.000000000 0.000000000 0.000000000
7.450000 0.000000000 0.000000000 0.000000000 0.000000000 -0.061153673 0.063216237 0.028328320 0.027404049
 0.000000000 0.000000000 0.000000000 0.000000000 0.030009179 -0.023901678 0.053337936 0.066967167
 -0.061153673 0.063216237 0.030009179 -0.023901678 0.000000000 0.000000000 0.000000000 0.000000000
 0.028328320 0.027404049 0.053337936 0.066967167 0.000000000 0.000000000 0.000000000 0.000000000
7.500000 0.000000000 0.000000000 0.000000000 0.000000000 -0.010027441 0.086487760 0.039050721 0.004527563
 0.000000000 0.000000000 0.000000000 0.000000000 0.008918846 -0.037210116 0.082411272 0.019753054
 -0.010027441 0.086487760 0.008918846 -0.037210116 0.000000000 0.000000000 0.000000000 0.000000000
 0.039050721 0.004527563 0.082411272 0.019753054 0.000000000 0.000000000 0.000000000 0.000000000
7.550000 0.000000000 0.000000000 0.000000000 0.000000000 0.044127277 0.074014066 0.033670888 -0.020074625
 0.000000000 0.000000000 0.000000000 0.000000000 -0.015813893 -0.034722865 0.076326482 -0.034761497
 0.044127277 0.074014066 -0.015813893 -0.034722865 0.000000000 0.000000000 0.000000000 0.000000000
 0.033670888 -0.020074625 0.076326482 -0.034761497 0.000000000 0.000000000 0.000000000 0.000000000
7.600000 0.000000000 0.000000000 0.000000000 0.000000000 0.079170175 0.031662846 0.014512429 -0.036287058
 0.000000000 0.000000000 0.000000000 0.000000000 -0.033718253 -0.017603121 0.038406040 -0.073565623
 0.079170175 0.031662846 -0.033718253 -0.017603121 0.000000000 0.000000000 0.000000000 0.000000000
 0.014512429 -0.036287058 0.038406040 -0.073565623 0.000000000 0.000000000 0.000000000 0.000000000
7.650000 0.000000000 0.000000000 0.000000000 0.000000000 0.081259028 -0.022661906 -0.010464552 -0.037522850
 0.000000000 0.000000000 0.000000000 0.000000000 -0.037293771 0.006818958 -0.014767052 -0.080762936
 0.081259028 -0.022661906 -0.037293771 0.006818958 0.000000000 0.000000000 0.000000000 0.000000000
 -0.010464552 -0.037522850 -0.014767052 -0.080762936 0.000000000 0.000000000 0.000000000 0.000000000
7.700000 0.000000000 0.000000000 0.000000000 0.000000000 0.050282718 -0.066601314 -0.030983145 -0.023391682
 0.000000000 0.000000000 0.000000000 0.000000000 -0.025145685 0.028197926 -0.060614212 -0.054053121
 0.050282718 -0.066601314 -0.025145685 0.028197926 0.000000000 0.000000000 0.000000000 0.000000000
 -0.030983145 -0.023391682 -0.060614212 -0.054053121 0.000000000 0.000000000 0.000000000 0.000000000
7.750000 0.000000000 0.000000000 0.000000000 0.000000000 -0.000428694 -0.082541258 -0.038682719 0.000200906
 0.000000000 0.000000000 0.000000000 0.000000000 -0.002512832 0.037561348 -0.080148473 -0.005361886
 -0.000428694 -0.082541258 -0.002512832 0.037561348 0.000000000 0.000000000 0.000000000 0.000000000
 -0.038682719 0.000200906 -0.080148473 -0.005361886 0.000000000 0.000000000 0.000000000 0.000000000
7.800000 0.000000000 0.000000000 0.000000000 0.000000000 -0.049846491 -0.064650118 -0.030521326 0.023532532
 0.000000000 0.000000000 0.000000000 0.000000000 0.021002829 0.031072215 -0.065817007 0.044488086
 -0.049846491 -0.064650118 0.021002829 0.031072215 0.000000000 0.000000000 0.000000000 0.000000000
 -0.030521326 0.023532532 -0.065817007 0.044488086 0.000000000 0.000000000 0.000000000 0.000000000
7.850000 0.000000000 0.000000000 0.000000000 0.000000000 -0.077963616 -0.020956291 -0.009966022 0.037076559
 0.000000000 0.000000000 0.000000000 0.000000000 0.035516635 0.011590638 -0.024372490 0.074683449
 -0.077963616 -0.020956291 0.035516635 0.011590638 0.000000000 0.000000000 0.000000000 0.000000000
 -0.009966022 0.037076559 -0.024372490 0.074683449 0.000000000 0.000000000 0.000000000 0.000000000
7.900000 0.000000000 0.000000000 0.000000000 0.000000000 -0.073879294 0.030245657 0.014488694 0.035390685
 0.000000000 0.000000000 0.000000000 0.000000000 0.035015649 -0.012595049 0.026292606 0.073096392
 -0.073879294 0.030245657 0.035015649 -0.012595049 0.000000000 0.000000000 0.000000000 0.000000000
 0.014488694 0.035390685 0.026292606 0.073096392 0.000000000 0.000000000 0.000000000 0.000000000
7.950000 0.000000000 0.000000000 0.000000000 0.000000000 -0.039990492 0.068055672 0.032837873 0.019296007
 0.000000000 0.000000000 0.000000000 0.000000000 0.019842461 -0.031301538 0.064871655 0.041123005
 -0.039990492 0.068055672 0.019842461 -0.031301538 0.000000000 0.000000000 0.000000000 0.000000000
 0.032837873 0.019296007 0.064871655 0.041123005 0.000000000 0.000000000 0.000000000 0.000000000
8.000000 0.000000000 0.000000000 0.000000000 0.000000000 0.009303922 0.077489494 0.037660309 -0.004521756
 0.000000000 0.000000000 0.000000000 0.000000000 -0.003513536 -0.036739605 0.075595063 -0.007229419
 0.009303922 0.077489494 -0.003513536 -0.036739605 0.000000000 0.000000000 0.000000000 0.000000000
 0.037660309 -0.004521756 0.075595063 -0.007229419 0.000000000 0.000000000 0.000000000 0.000000000
8.050000 0.000000000 0.000000000 0.000000000 0.000000000 0.053719472 0.055392741 0.027115048 -0.026295974
 0.000000000 0.000000000 0.000000000 0.000000000 -0.025198199 -0.026752819 0.054652750 -0.051476852
 0.053719472 0.055392741 -0.025198199 -0.026752819 0.000000000 0.000000000 0.000000000 0.000000000
 0.027115048 -0.026295974 0.054652750 -0.051476852 0.000000000 0.000000000 0.000000000 0.000000000
8.100000 0.000000000 0.000000000 0.000000000 0.000000000 0.075426619 0.011425976 0.005633180 -0.037186473
 0.000000000 0.000000000 0.000000000 0.000000000 -0.036152918 -0.005662099 0.011484633 -0.073330223
 0.075426619 0.011425976 -0.036152918 -0.005662099 0.000000000 0.000000000 0.000000000 0.000000000
 0.005633180 -0.037186473 0.011484633 -0.073330223 0.000000000 0.000000000 0.000000000 0.000000000
8.150000 0.000000000 0.000000000 0.000000000 0.000000000 0.066190566 -0.036149713 -0.017949592 -0.032865922
 0.000000000 0.000000000 0.000000000 0.000000000 -0.031896258 0.017609264 -0.035464306 -0.064237703
 0.066190566 -0.036149713 -0.031896258 0.017609264 0.000000000 0.000000000 0.000000000 0.000000000
 -0.017949592 -0.032865922 -0.035464306 -0.064237703 0.000000000 0.000000000 0.000000000 0.000000000
8.200000 0.000000000 0.000000000 0.000000000 0.000000000 0.030460297 -0.068052374 -0.034030565 -0.015232108
 0.000000000 0.000000000 0.000000000 0.000000000 -0.014350064 0.033314449 -0.066620326 -0.028696436
 0.030460297 -0.068052374 -0.014350064 0.033314449 0.000000000 0.000000000 0.000000000 0.000000000
 -0.034030565 -0.015232108 -0.066620326 -0.028696436 0.000000000 0.000000000 0.000000000 0.000000000
8.250000 0.000000000 0.000000000 0.000000000 0.000000000 -0.016735172 -0.071781328 -0.036149351 0.008427897
 0.000000000 0.000000000 0.000000000 0.000000000 0.009030421 0.034964565 -0.069428712 0.017931597
 -0.016735172 -0.071781328 0.009030421 0.034964565 0.000000000 0.000000000 0.000000000 0.000000000
 -0.036149351 0.008427897 -0.069428712 0.017931597 0.000000000 0.000000000 0.000000000 0.000000000
8.300000 0.000000000 0.000000000 0.000000000 0.000000000 -0.056102972 -0.046491478 -0.023578312 0.028452813
 0.000000000 0.000000000 0.000000000 0.000000000 0.028427967 0.022004576 -0.043388403 0.056053981
 -0.056102972 -0.046491478 0.028427967 0.022004576 0.000000000 0.000000000 0.000000000 0.000000000
 -0.023578312 0.028452813 -0.043388403 0.056053981 0.000000000 0.000000000 0.000000000 0.000000000
8.350000 0.000000000 0.000000000 0.000000000 0.000000000 -0.071963653 -0.003050607 -0.001557985 0.036752786
 0.000000000 0.000000000 0.000000000 0.000000000 0.035785963 -0.000017125 0.000033531 0.070070568
 -0.071963653 -0.003050607 0.035785963 -0.000017125 0.000000000 0.000000000 0.000000000 0.000000000
 -0.001557985 0.036752786 0.000033531 0.070070568 0.000000000 0.000000000 0.000000000 0.000000000
8.400000 0.000000000 0.000000000 0.000000000 0.000000000 -0.058478298 0.040621590 0.020891004 0.030074410
 0.000000000 0.000000000 0.000000000 0.000000000 0.028151280 -0.021827539 0.042442641 0.054738862
 -0.058478298 0.040621590 0.028151280 -0.021827539 0.000000000 0.000000000 0.000000000 0.000000000
 0.020891004 0.030074410 0.042442641 0.054738862 0.000000000 0.000000000 0.000000000 0.000000000
8.450000 0.000000000 0.000000000 0.000000000 0.000000000 -0.021760898 0.066937992 0.034664757 0.011269180
 0.000000000 0.000000000 0.000000000 0.000000000 0.008852270 -0.034335128 0.066301474 0.017093821
 -0.021760898 0.066937992 0.008852270 -0.034335128 0.000000000 0.000000000 0.000000000 0.000000000
 0.034664757 0.011269180 0.066301474 0.017093821 0.000000000 0.000000000 0.000000000 0.000000000
8.500000 0.000000000 0.000000000 0.000000000 0.000000000 0.022870567 0.065713019 0.034266362 -0.011925965
 0.000000000 0.000000000 0.000000000 0.000000000 -0.013954507 -0.032417589 0.062167604 -0.026760727
 0.022870567 0.065713019 -0.013954507 -0.032417589 0.000000000 0.000000000 0.000000000 0.000000000
 0.034266362 -0.011925965 0.062167604 -0.026760727 0.000000000 0.000000000 0.000000000 0.000000000
8.550000 0.000000000 0.000000000 0.000000000 0.000000000 0.057277403 0.038081323 0.019994837 -0.030073859
 0.000000000 0.000000000 0.000000000 0.000000000 -0.030733466 -0.017014487 0.032405073 -0.058533661
 0.057277403 0.038081323 -0.030733466 -0.017014487 0.000000000 0.000000000 0.000000000 0.000000000
 0.019994837 -0.030073859 0.032405073 -0.058533661 0.000000000 0.000000000 0.000000000 0.000000000
8.600000 0.000000000 0.000000000 0.000000000 0.000000000 0.067861400 -0.004230590 -0.002236580 -0.035876188
 0.000000000 0.000000000 0.000000000 0.000000000 -0.034556021 0.005327657 -0.010077499 -0.065364245
 0.067861400 -0.004230590 -0.034556021 0.005327657 0.000000000 0.000000000 0.000000000 0.000000000
 -0.002236580 -0.035876188 -0.010077499 -0.065364245 0.000000000 0.000000000 0.000000000 0.000000000
8.650000 0.000000000 0.000000000 0.000000000 0.000000000 0.050921727 -0.043871851 -0.023352620 -0.027105210
 0.000000000 0.000000000 0.000000000 0.000000000 -0.023957915 0.025239749 -0.047417143 -0.045009000
 0.050921727 -0.043871851 -0.023957915 0.025239749 0.000000000 0.000000000 0.000000000 0.000000000
 -0.023352620 -0.027105210 -0.047417143 -0.045009000 0.000000000 0.000000000 0.000000000 0.000000000
8.700000 0.000000000 0.000000000 0.000000000 0.000000000 0.013905191 -0.064973638 -0.034821040 -0.007452149
 0.000000000 0.000000000 0.000000000 0.000000000 -0.003491378 0.034459069 -0.064298224 -0.006514669
 0.013905191 -0.064973638 -0.003491378 0.034459069 0.000000000 0.000000000 0.000000000 0.000000000
 -0.034821040 -0.007452149 -0.064298224 -0.006514669 0.000000000 0.000000000 0.000000000 0.000000000
8.750000 0.000000000 0.000000000 0.000000000 0.000000000 -0.027851105 -0.059488133 -0.032098055 0.015027641
 0.000000000 0.000000000 0.000000000 0.000000000 0.018231840 0.029255415 -0.054219797 0.033789529
 -0.027851105 -0.059488133 0.018231840 0.029255415 0.000000000 0.000000000 0.000000000 0.000000000
 -0.032098055 0.015027641 -0.054219797 0.033789529 0.000000000 0.000000000 0.000000000 0.000000000
8.800000 0.000000000 0.000000000 0.000000000 0.000000000 -0.057466488 -0.030234099 -0.016423977 0.031217343
 0.000000000 0.000000000 0.000000000 0.000000000 0.032164728 0.011935160 -0.021970856 0.059210484
 -0.057466488 -0.030234099 0.032164728 0.011935160 0.000000000 0.000000000 0.000000000 0.000000000
 -0.016423977 0.031217343 -0.021970856 0.059210484 0.000000000 0.000000000 0.000000000 0.000000000
8.850000 0.000000000 0.000000000 0.000000000 0.000000000 -0.063330178 0.010492740 0.005738420 0.034634917
 0.000000000 0.000000000 0.000000000 0.000000000 0.032591228 -0.010180795 0.018615653 0.059593280
 -0.063330178 0.010492740 0.032591228 -0.010180795 0.000000000 0.000000000 0.000000000 0.000000000
 0.005738420 0.034634917 0.018615653 0.059593280 0.000000000 0.000000000 0.000000000 0.000000000
8.900000 0.000000000 0.000000000 0.000000000 0.000000000 -0.043636414 0.046078961 0.025369839 0.024025038
 0.000000000 0.000000000 0.000000000 0.000000000 0.019467462 -0.027852425 0.050588056 0.035358538
 -0.043636414 0.046078961 0.019467462 -0.027852425 0.000000000 0.000000000 0.000000000 0.000000000
 0.025369839 0.024025038 0.050588056 0.035358538 0.000000000 0.000000000 0.000000000 0.000000000
8.950000 0.000000000 0.000000000 0.000000000 0.000000000 -0.006877407 0.062361413 0.034564650 0.003811895
 0.000000000 0.000000000 0.000000000 0.000000000 -0.001619148 -0.033780291 0.060946275 -0.002921260
 -0.006877407 0.062361413 -0.001619148 -0.033780291 0.000000000 0.000000000 0.000000000 0.000000000
 0.034564650 0.003811895 0.060946275 -0.002921260 0.000000000 0.000000000 0.000000000 0.000000000
9.000000 0.000000000 0.000000000 0.000000000 0.000000000 0.031805833 0.053250930 0.029712170 -0.017746551
 0.000000000 0.000000000 0.000000000 0.000000000 -0.021829717 -0.025617825 0.045912937 -0.039123791
 0.031805833 0.053250930 -0.021829717 -0.025617825 0.000000000 0.000000000 0.000000000 0.000000000
 0.029712170 -0.017746551 0.045912937 -0.039123791 0.000000000 0.000000000 0.000000000 0.000000000
9.050000 0.000000000 0.000000000 0.000000000 0.000000000 0.056851976 0.022984681 0.012910008 -0.031932551
 0.000000000 0.000000000 0.000000000 0.000000000 -0.032778766 -0.006894481 0.012274775 -0.058358557
 0.056851976 0.022984681 -0.032778766 -0.006894481 0.000000000 0.000000000 0.000000000 0.000000000
 0.012910008 -0.031932551 0.012274775 -0.058358557 0.000000000 0.000000000 0.000000000 0.000000000
9.100000 0.000000000 0.000000000 0.000000000 0.000000000 0.058528637 -0.015814714 -0.008941706 -0.033092337
 0.000000000 0.000000000 0.000000000 0.000000000 -0.030011422 0.014510751 -0.025664386 -0.053079588
 0.058528637 -0.015814714 -0.030011422 0.014510751 0.000000000 0.000000000 0.000000000 0.000000000
 -0.008941706 -0.033092337 -0.025664386 -0.053079588 0.000000000 0.000000000 0.000000000 0.000000000
9.150000 0.000000000 0.000000000 0.000000000 0.000000000 0.036697597 -0.047395174 -0.026974560 -0.020886125
 0.000000000 0.000000000 0.000000000 0.000000000 -0.014812077 0.029685204 -0.052157864 -0.026025299
 0.036697597 -0.047395174 -0.014812077 0.029685204 0.000000000 0.000000000 0.000000000 0.000000000
 -0.026974560 -0.020886125 -0.052157864 -0.026025299 0.000000000 0.000000000 0.000000000 0.000000000
9.200000 0.000000000 0.000000000 0.000000000 0.000000000 0.000646594 -0.059261333 -0.033950275 -0.000370428
 0.000000000 0.000000000 0.000000000 0.000000000 0.006387993 0.032392303 -0.056541842 0.011150454
 0.000646594 -0.059261333 0.006387993 0.032392303 0.000000000 0.000000000 0.000000000 0.000000000
 -0.033950275 -0.000370428 -0.056541842 0.011150454 0.000000000 0.000000000 0.000000000 0.000000000
9.250000 0.000000000 0.000000000 0.000000000 0.000000000 -0.034851425 -0.047105839 -0.027163693 0.020097156
 0.000000000 0.000000000 0.000000000 0.000000000 0.024732363 0.021631805 -0.037512732 0.042889555
 -0.034851425 -0.047105839 0.024732363 0.021631805 0.000000000 0.000000000 0.000000000 0.000000000
 -0.027163693 0.020097156 -0.037512732 0.042889555 0.000000000 0.000000000 0.000000000 0.000000000
9.300000 0.000000000 0.000000000 0.000000000 0.000000000 -0.055583970 -0.016345225 -0.009487196 0.032262390
 0.000000000 0.000000000 0.000000000 0.000000000 0.032638590 0.002000849 -0.003447206 0.056232115
 -0.055583970 -0.016345225 0.032638590 0.002000849 0.000000000 0.000000000 0.000000000 0.000000000
 -0.009487196 0.032262390 -0.003447206 0.056232115 0.000000000 0.000000000 0.000000000 0.000000000
9.350000 0.000000000 0.000000000 0.000000000 0.000000000 -0.053578992 0.020274516 0.011844622 0.031301509
 0.000000000 0.000000000 0.000000000 0.000000000 0.026930129 -0.018270334 0.031273448 0.046096474
 -0.053578992 0.020274516 0.026930129 -0.018270334 0.000000000 0.000000000 0.000000000 0.000000000
 0.011844622 0.031301509 0.031273448 0.046096474 0.000000000 0.000000000 0.000000000 0.000000000
9.400000 0.000000000 0.000000000 0.000000000 0.000000000 -0.030153732 0.047951536 0.028196035 0.017730729
 0.000000000 0.000000000 0.000000000 0.000000000 0.010108454 -0.030768695 0.052326727 0.017190924
 -0.030153732 0.047951536 0.010108454 -0.030768695 0.000000000 0.000000000 0.000000000 0.000000000
 0.028196035 0.017730729 0.052326727 0.017190924 0.000000000 0.000000000 0.000000000 0.000000000
9.450000 0.000000000 0.000000000 0.000000000 0.000000000 0.004826309 0.055802376 0.033025100 -0.002856318
 0.000000000 0.000000000 0.000000000 0.000000000 -0.010742193 -0.030388418 0.051347186 -0.018151040
 0.004826309 0.055802376 -0.010742193 -0.030388418 0.000000000 0.000000000 0.000000000 0.000000000
 0.033025100 -0.002856318 0.051347186 -0.018151040 0.000000000 0.000000000 0.000000000 0.000000000
9.500000 0.000000000 0.000000000 0.000000000 0.000000000 0.037093097 0.041129382 0.024498578 -0.022094378
 0.000000000 0.000000000 0.000000000 0.000000000 -0.026938285 -0.017413721 0.029234987 -0.045225279
 0.037093097 0.041129382 -0.026938285 -0.017413721 0.000000000 0.000000000 0.000000000 0.000000000
 0.024498578 -0.022094378 0.029234987 -0.045225279 0.000000000 0.000000000 0.000000000 0.000000000
9.550000 0.000000000 0.000000000 0.000000000 0.000000000 0.053788152 0.010313365 0.006182694 -0.032245120
 0.000000000 0.000000000 0.000000000 0.000000000 -0.031812345 0.002653850 -0.004426893 -0.053066239
 0.053788152 0.010313365 -0.031812345 0.002653850 0.000000000 0.000000000 0.000000000 0.000000000
 0.006182694 -0.032245120 -0.004426893 -0.053066239 0.000000000 0.000000000 0.000000000 0.000000000
9.600000 0.000000000 0.000000000 0.000000000 0.000000000 0.048576801 -0.023947265 -0.014448194 -0.029308025
 0.000000000 0.000000000 0.000000000 0.000000000 -0.023455435 0.021428280 -0.035516459 -0.038876382
 0.048576801 -0.023947265 -0.023455435 0.021428280 0.000000000 0.000000000 0.000000000 0.000000000
 -0.014448194 -0.029308025 -0.035516459 -0.038876382 0.000000000 0.000000000 0.000000000 0.000000000
9.650000 0.000000000 0.000000000 0.000000000 0.000000000 0.024034769 -0.047861793 -0.029061539 -0.014593841
 0.000000000 0.000000000 0.000000000 0.000000000 -0.005459829 0.031142899 -0.051289610 -0.008991857
 0.024034769 -0.047861793 -0.005459829 0.031142899 0.000000000 0.000000000 0.000000000 0.000000000
 -0.029061539 -0.014593841 -0.051289610 -0.008991857 0.000000000 0.000000000 0.000000000 0.000000000
9.700000 0.000000000 0.000000000 0.000000000 0.000000000 -0.009584547 -0.052089922 -0.031830775 0.005856864
 0.000000000 0.000000000 0.000000000 0.000000000 0.014624797 0.027861572 -0.045594464 0.023932956
 -0.009584547 -0.052089922 0.014624797 0.027861572 0.000000000 0.000000000 0.000000000 0.000000000
 -0.031830775 0.005856864 -0.045594464 0.023932956 0.000000000 0.000000000 0.000000000 0.000000000
9.750000 0.000000000 0.000000000 0.000000000 0.000000000 -0.038625825 -0.035377811 -0.021756064 0.023753474
 0.000000000 0.000000000 0.000000000 0.000000000 0.028458384 0.013070373 -0.021253899 0.046276538
 -0.038625825 -0.035377811 0.028458384 0.013070373 0.000000000 0.000000000 0.000000000 0.000000000
 -0.021756064 0.023753474 -0.021253899 0.046276538 0.000000000 0.000000000 0.000000000 0.000000000
9.800000 0.000000000 0.000000000 0.000000000 0.000000000 -0.051570894 -0.004877166 -0.003018317 0.031915527
 0.000000000 0.000000000 0.000000000 0.000000000 0.030372390 -0.006992458 0.011298805 0.049077407
 -0.051570894 -0.004877166 0.030372390 -0.006992458 0.000000000 0.000000000 0.000000000 0.000000000
 -0.003018317 0.031915527 0.011298805 0.049077407 0.000000000 0.000000000 0.000000000 0.000000000
9.850000 0.000000000 0.000000000 0.000000000 0.000000000 -0.043597492 0.026904362 0.016755613 0.027151831
 0.000000000 0.000000000 0.000000000 0.000000000 0.019690175 -0.023967381 0.038484245 0.031616367
 -0.043597492 0.026904362 0.019690175 -0.023967381 0.000000000 0.000000000 0.000000000 0.000000000
 0.016755613 0.027151831 0.038484245 0.031616367 0.000000000 0.000000000 0.000000000 0.000000000
9.900000 0.000000000 0.000000000 0.000000000 0.000000000 -0.018357448 0.047225389 0.029596872 0.011504893
 0.000000000 0.000000000 0.000000000 0.000000000 0.000957109 -0.030855844 0.049234230 0.001527182
 -0.018357448 0.047225389 0.000957109 -0.030855844 0.000000000 0.000000000 0.000000000 0.000000000
 0.029596872 0.011504893 0.049234230 0.001527182 0.000000000 0.000000000 0.000000000 0.000000000
9.950000 0.000000000 0.000000000 0.000000000 0.000000000 0.013673279 0.048210904 0.030404700 -0.008623194
 0.000000000 0.000000000 0.000000000 0.000000000 -0.017993266 -0.024903828 0.039488502 -0.028530840
 0.013673279 0.048210904 -0.017993266 -0.024903828 0.000000000 0.000000000 0.000000000 0.000000000
 0.030404700 -0.008623194 0.039488502 -0.028530840 0.000000000 0.000000000 0.000000000 0.000000000
10.000000 0.000000000 0.000000000 0.000000000 0.000000000 0.039535515 0.029892202 0.018970168 -0.025090001
 0.000000000 0.000000000 0.000000000 0.000000000 -0.029314416 -0.008699434 0.013708115 -0.046192128
 0.039535515 0.029892202 -0.029314416 -0.008699434 0.000000000 0.000000000 0.000000000 0.000000000
 0.018970168 -0.025090001 0.013708115 -0.046192128 0.000000000 0.000000000 0.000000000 0.000000000
10.050000 0.000000000 0.000000000 0.000000000 0.000000000 0.049022966 0.000018273 0.000011669 -0.031305703
 0.000000000 0.000000000 0.000000000 0.000000000 -0.028394301 0.010951382 -0.017149247 -0.044463874
 0.049022966 0.000018273 -0.028394301 0.010951382 0.000000000 0.000000000 0.000000000 0.000000000
 0.000011669 -0.031305703 -0.017149247 -0.044463874 0.000000000 0.000000000 0.000000000 0.000000000
10.100000 0.000000000 0.000000000 0.000000000 0.000000000 0.038700881 -0.029213199 -0.018771825 -0.024868422
 0.000000000 0.000000000 0.000000000 0.000000000 -0.015731759 0.025883026 -0.040279834 -0.024482170
 0.038700881 -0.029213199 -0.015731759 0.025883026 0.000000000 0.000000000 0.000000000 0.000000000
 -0.018771825 -0.024868422 -0.040279834 -0.024482170 0.000000000 0.000000000 0.000000000 0.000000000
10.150000 0.000000000 0.000000000 0.000000000 0.000000000 0.013128839 -0.046129758 -0.029826692 -0.008488877
 0.000000000 0.000000000 0.000000000 0.000000000 0.003320489 0.029962301 -0.046339489 0.005135446
 0.013128839 -0.046129758 0.003320489 0.029962301 0.000000000 0.000000000 0.000000000 0.000000000
 -0.029826692 -0.008488877 -0.046339489 0.005135446 0.000000000 0.000000000 0.000000000 0.000000000
10.200000 0.000000000 0.000000000 0.000000000 0.000000000 -0.017138207 -0.044237510 -0.028780893 0.011150105
 0.000000000 0.000000000 0.000000000 0.000000000 0.020818260 0.021605688 -0.033208901 0.031998589
 -0.017138207 -0.044237510 0.020818260 0.021605688 0.000000000 0.000000000 0.000000000 0.000000000
 -0.028780893 0.011150105 -0.033208901 0.031998589 0.000000000 0.000000000 0.000000000 0.000000000
10.250000 0.000000000 0.000000000 0.000000000 0.000000000 -0.039900039 -0.024701993 -0.016170689 0.026119801
 0.000000000 0.000000000 0.000000000 0.000000000 0.029537635 0.004389567 -0.006705407 0.045121048
 -0.039900039 -0.024701993 0.029537635 0.004389567 0.000000000 0.000000000 0.000000000 0.000000000
 -0.016170689 0.026119801 -0.006705407 0.045121048 0.000000000 0.000000000 0.000000000 0.000000000
10.300000 0.000000000 0.000000000 0.000000000 0.000000000 -0.046222284 0.004286005 0.002823095 0.030445582
 0.000000000 0.000000000 0.000000000 0.000000000 0.025955822 -0.014479748 0.021983060 0.039405961
 -0.046222284 0.004286005 0.025955822 -0.014479748 0.000000000 0.000000000 0.000000000 0.000000000
 0.002823095 0.030445582 0.021983060 0.039405961 0.000000000 0.000000000 0.000000000 0.000000000
10.350000 0.000000000 0.000000000 0.000000000 0.000000000 -0.033934403 0.030937128 0.020503250 0.022489661
 0.000000000 0.000000000 0.000000000 0.000000000 0.011671791 -0.027181924 0.041014506 0.017611437
 -0.033934403 0.030937128 0.011671791 -0.027181924 0.000000000 0.000000000 0.000000000 0.000000000
 0.020503250 0.022489661 0.041014506 0.017611437 0.000000000 0.000000000 0.000000000 0.000000000
10.400000 0.000000000 0.000000000 0.000000000 0.000000000 -0.008348795 0.044652114 0.029774755 0.005567112
 0.000000000 0.000000000 0.000000000 0.000000000 -0.007305031 -0.028522543 0.042774218 -0.010955088
 -0.008348795 0.044652114 -0.007305031 -0.028522543 0.000000000 0.000000000 0.000000000 0.000000000
 0.029774755 0.005567112 0.042774218 -0.010955088 0.000000000 0.000000000 0.000000000 0.000000000
10.450000 0.000000000 0.000000000 0.000000000 0.000000000 0.020024720 0.040229896 0.026990583 -0.013434757
 0.000000000 0.000000000 0.000000000 0.000000000 -0.023082600 -0.018055311 0.026911730 -0.034404985
 0.020024720 0.040229896 -0.023082600 -0.018055311 0.000000000 0.000000000 0.000000000 0.000000000
 0.026990583 -0.013434757 0.026911730 -0.034404985 0.000000000 0.000000000 0.000000000 0.000000000
10.500000 0.000000000 0.000000000 0.000000000 0.000000000 0.039790110 0.019827519 0.013383902 -0.026858981
 0.000000000 0.000000000 0.000000000 0.000000000 -0.029167506 -0.000220369 0.000326465 -0.043210063
 0.039790110 0.019827519 -0.029167506 -0.000220369 0.000000000 0.000000000 0.000000000 0.000000000
 0.013383902 -0.026858981 0.000326465 -0.043210063 0.000000000 0.000000000 0.000000000 0.000000000
10.550000 0.000000000 0.000000000 0.000000000 0.000000000 0.043235997 -0.008061273 -0.005474734 -0.029363301
 0.000000000 0.000000000 0.000000000 0.000000000 -0.023135806 0.017538710 -0.025824876 -0.034066322
 0.043235997 -0.008061273 -0.023135806 0.017538710 0.000000000 0.000000000 0.000000000 0.000000000
 -0.005474734 -0.029363301 -0.025824876 -0.034066322 0.000000000 0.000000000 0.000000000 0.000000000
10.600000 0.000000000 0.000000000 0.000000000 0.000000000 0.029335492 -0.032135557 -0.021957572 -0.020044344
 0.000000000 0.000000000 0.000000000 0.000000000 -0.007595603 0.027880932 -0.040804570 -0.011116390
 0.029335492 -0.032135557 -0.007595603 0.027880932 0.000000000 0.000000000 0.000000000 0.000000000
 -0.021957572 -0.020044344 -0.040804570 -0.011116390 0.000000000 0.000000000 0.000000000 0.000000000
10.650000 0.000000000 0.000000000 0.000000000 0.000000000 0.004011705 -0.042860858 -0.029464060 -0.002757787
 0.000000000 0.000000000 0.000000000 0.000000000 0.010939562 0.026601127 -0.038696198 0.015913591
 0.004011705 -0.042860858 0.010939562 0.026601127 0.000000000 0.000000000 0.000000000 0.000000000
 -0.029464060 -0.002757787 -0.038696198 0.015913591 0.000000000 0.000000000 0.000000000 0.000000000
10.700000 0.000000000 0.000000000 0.000000000 0.000000000 -0.022377360 -0.036238248 -0.025062621 0.015476336
 0.000000000 0.000000000 0.000000000 0.000000000 0.024780324 0.014337705 -0.020731004 0.035830073
 -0.022377360 -0.036238248 0.024780324 0.014337705 0.000000000 0.000000000 0.000000000 0.000000000
 -0.025062621 0.015476336 -0.020731004 0.035830073 0.000000000 0.000000000 0.000000000 0.000000000
10.750000 0.000000000 0.000000000 0.000000000 0.000000000 -0.039270032 -0.015281878 -0.010633053 0.027323889
 0.000000000 0.000000000 0.000000000 0.000000000 0.028250467 -0.003737722 0.005371873 0.040601715
 -0.039270032 -0.015281878 0.028250467 -0.003737722 0.000000000 0.000000000 0.000000000 0.000000000
 -0.010633053 0.027323889 0.005371873 0.040601715 0.000000000 0.000000000 0.000000000 0.000000000
10.800000 0.000000000 0.000000000 0.000000000 0.000000000 -0.040122113 0.011335047 0.007934527 0.028085458
 0.000000000 0.000000000 0.000000000 0.000000000 0.020013149 -0.020100807 0.028715460 0.028590235
 -0.040122113 0.011335047 0.020013149 -0.020100807 0.000000000 0.000000000 0.000000000 0.000000000
 0.007934527 0.028085458 0.028715460 0.028590235 0.000000000 0.000000000 0.000000000 0.000000000
10.850000 0.000000000 0.000000000 0.000000000 0.000000000 -0.024933386 0.032864094 0.023143575 0.017558607
 0.000000000 0.000000000 0.000000000 0.000000000 0.003581777 -0.028005921 0.039768669 0.005086157
 -0.024933386 0.032864094 0.003581777 -0.028005921 0.000000000 0.000000000 0.000000000 0.000000000
 0.023143575 0.017558607 0.039768669 0.005086157 0.000000000 0.000000000 0.000000000 0.000000000
10.900000 0.000000000 0.000000000 0.000000000 0.000000000 -0.000107792 0.040816705 0.028916954 0.000076366
 0.000000000 0.000000000 0.000000000 0.000000000 -0.014177834 -0.024265695 0.034251385 -0.020012221
 -0.000107792 0.040816705 -0.014177834 -0.024265695 0.000000000 0.000000000 0.000000000 0.000000000
 0.028916954 0.000076366 0.034251385 -0.020012221 0.000000000 0.000000000 0.000000000 0.000000000
10.950000 0.000000000 0.000000000 0.000000000 0.000000000 0.024239463 0.032304372 0.023023774 -0.017275802
 0.000000000 0.000000000 0.000000000 0.000000000 -0.025915760 -0.010533927 0.014780022 -0.036362081
 0.024239463 0.032304372 -0.025915760 -0.010533927 0.000000000 0.000000000 0.000000000 0.000000000
 0.023023774 -0.017275802 0.014780022 -0.036362081 0.000000000 0.000000000 0.000000000 0.000000000
11.000000 0.000000000 0.000000000 0.000000000 0.000000000 0.038398329 0.011072355 0.007938725 -0.027531071
 0.000000000 0.000000000 0.000000000 0.000000000 -0.026838721 0.007423532 -0.010353800 -0.037432690
 0.038398329 0.011072355 -0.026838721 0.007423532 0.000000000 0.000000000 0.000000000 0.000000000
 0.007938725 -0.027531071 -0.010353800 -0.037432690 0.000000000 0.000000000 0.000000000 0.000000000
11.050000 0.000000000 0.000000000 0.000000000 0.000000000 0.036930774 -0.014136022 -0.010195971 -0.026637274
 0.000000000 0.000000000 0.000000000 0.000000000 -0.016665766 0.022149329 -0.030708542 -0.023105954
 0.036930774 -0.014136022 -0.016665766 0.022149329 0.000000000 0.000000000 0.000000000 0.000000000
 -0.010195971 -0.026637274 -0.030708542 -0.023105954 0.000000000 0.000000000 0.000000000 0.000000000
11.100000 0.000000000 0.000000000 0.000000000 0.000000000 0.020750523 -0.033174715 -0.024071009 -0.015056226
 0.000000000 0.000000000 0.000000000 0.000000000 0.000298304 0.027590661 -0.038025507 0.000411123
 0.020750523 -0.033174715 0.000298304 0.027590661 0.000000000 0.000000000 0.000000000 0.000000000
 -0.024071009 -0.015056226 -0.038025507 0.000411123 0.000000000 0.000000000 0.000000000 0.000000000
11.150000 0.000000000 0.000000000 0.000000000 0.000000000 -0.003375918 -0.038573607 -0.028155179 0.002464109
 0.000000000 0.000000000 0.000000000 0.000000000 0.016984002 0.021585820 -0.029573349 0.023268693
 -0.003375918 -0.038573607 0.016984002 0.021585820 0.000000000 0.000000000 0.000000000 0.000000000
 -0.028155179 0.002464109 -0.029573349 0.023268693 0.000000000 0.000000000 0.000000000 0.000000000
11.200000 0.000000000 0.000000000 0.000000000 0.000000000 -0.025652935 -0.028462955 -0.020898942 0.018835684
 0.000000000 0.000000000 0.000000000 0.000000000 0.026502601 0.006720336 -0.009152646 0.036094762
 -0.025652935 -0.028462955 0.026502601 0.006720336 0.000000000 0.000000000 0.000000000 0.000000000
 -0.020898942 0.018835684 -0.009152646 0.036094762 0.000000000 0.000000000 0.000000000 0.000000000
11.250000 0.000000000 0.000000000 0.000000000 0.000000000 -0.037228282 -0.007201510 -0.005319118 0.027497236
 0.000000000 0.000000000 0.000000000 0.000000000 0.024989051 -0.010785197 0.014601990 0.033832471
 -0.037228282 -0.007201510 0.024989051 -0.010785197 0.000000000 0.000000000 0.000000000 0.000000000
 -0.005319118 0.027497236 0.014601990 0.033832471 0.000000000 0.000000000 0.000000000 0.000000000
11.300000 0.000000000 0.000000000 0.000000000 0.000000000 -0.033705302 0.016493537 0.012254542 0.025042721
 0.000000000 0.000000000 0.000000000 0.000000000 0.013169610 -0.023677658 0.031868047 0.017725138
 -0.033705302 0.016493537 0.013169610 -0.023677658 0.000000000 0.000000000 0.000000000 0.000000000
 0.012254542 0.025042721 0.031868047 0.017725138 0.000000000 0.000000000 0.000000000 0.000000000
11.350000 0.000000000 0.000000000 0.000000000 0.000000000 -0.016803643 0.033115942 0.024750460 0.012558842
 0.000000000 0.000000000 0.000000000 0.000000000 -0.003980846 -0.026675712 0.035691916 -0.005326344
 -0.016803643 0.033115942 -0.003980846 -0.026675712 0.000000000 0.000000000 0.000000000 0.000000000
 0.024750460 0.012558842 0.035691916 -0.005326344 0.000000000 0.000000000 0.000000000 0.000000000
11.400000 0.000000000 0.000000000 0.000000000 0.000000000 0.006454836 0.036179510 0.027199909 -0.004852773
 0.000000000 0.000000000 0.000000000 0.000000000 -0.019332275 -0.018631890 0.024782902 -0.025714508
 0.006454836 0.036179510 -0.019332275 -0.018631890 0.000000000 0.000000000 0.000000000 0.000000000
 0.027199909 -0.004852773 0.024782902 -0.025714508 0.000000000 0.000000000 0.000000000 0.000000000
11.450000 0.000000000 0.000000000 0.000000000 0.000000000 0.026658104 0.024742578 0.018711307 -0.020159903
 0.000000000 0.000000000 0.000000000 0.000000000 -0.026562964 -0.002967907 0.003924561 -0.035125083
 0.026658104 0.024742578 -0.026562964 -0.002967907 0.000000000 0.000000000 0.000000000 0.000000000
 0.018711307 -0.020159903 0.003924561 -0.035125083 0.000000000 0.000000000 0.000000000 0.000000000
11.500000 0.000000000 0.000000000 0.000000000 0.000000000 0.035808395 0.003668052 0.002790262 -0.027239201
 0.000000000 0.000000000 0.000000000 0.000000000 -0.022761662 0.013780153 -0.018115259 -0.029922264
 0.035808395 0.003668052 -0.022761662 0.013780153 0.000000000 0.000000000 0.000000000 0.000000000
 0.002790262 -0.027239201 -0.018115259 -0.029922264 0.000000000 0.000000000 0.000000000 0.000000000
11.550000 0.000000000 0.000000000 0.000000000 0.000000000 0.030483042 -0.018437164 -0.014107497 -0.023324598
 0.000000000 0.000000000 0.000000000 0.000000000 -0.009597766 0.024688565 -0.032265618 -0.012543372
 0.030483042 -0.018437164 -0.009597766 0.024688565 0.000000000 0.000000000 0.000000000 0.000000000
 -0.014107497 -0.023324598 -0.032265618 -0.012543372 0.000000000 0.000000000 0.000000000 0.000000000
11.600000 0.000000000 0.000000000 0.000000000 0.000000000 0.013104677 -0.032733006 -0.025193250 -0.010086131
 0.000000000 0.000000000 0.000000000 0.000000000 0.007409954 0.025307324 -0.032881221 0.009627581
 0.013104677 -0.032733006 0.007409954 0.025307324 0.000000000 0.000000000 0.000000000 0.000000000
 -0.025193250 -0.010086131 -0.032881221 0.009627581 0.000000000 0.000000000 0.000000000 0.000000000
11.650000 0.000000000 0.000000000 0.000000000 0.000000000 -0.009146226 -0.033676995 -0.026071755 0.007080744
 0.000000000 0.000000000 0.000000000 0.000000000 0.021206512 0.015474044 -0.019987887 0.027392541
 -0.009146226 -0.033676995 0.021206512 0.015474044 0.000000000 0.000000000 0.000000000 0.000000000
 -0.026071755 0.007080744 -0.019987887 0.027392541 0.000000000 0.000000000 0.000000000 0.000000000
11.700000 0.000000000 0.000000000 0.000000000 0.000000000 -0.027293623 -0.021166545 -0.016482453 0.021253627
 0.000000000 0.000000000 0.000000000 0.000000000 0.026126431 -0.000658368 0.000845468 0.033551213
 -0.027293623 -0.021166545 0.026126431 -0.000658368 0.000000000 0.000000000 0.000000000 0.000000000
 -0.016482453 0.021253627 0.000845468 0.033551213 0.000000000 0.000000000 0.000000000 0.000000000
11.750000 0.000000000 0.000000000 0.000000000 0.000000000 -0.034182789 -0.000467532 -0.000366197 0.026773840
 0.000000000 0.000000000 0.000000000 0.000000000 0.020219060 -0.016375037 0.020906393 0.025814148
 -0.034182789 -0.000467532 0.020219060 -0.016375037 0.000000000 0.000000000 0.000000000 0.000000000
 -0.000366197 0.026773840 0.020906393 0.025814148 0.000000000 0.000000000 0.000000000 0.000000000
11.800000 0.000000000 0.000000000 0.000000000 0.000000000 -0.027296074 0.019996401 0.015753708 0.021504588
 0.000000000 0.000000000 0.000000000 0.000000000 0.006019607 -0.025193467 0.031978418 0.007640771
 -0.027296074 0.019996401 0.006019607 -0.025193467 0.000000000 0.000000000 0.000000000 0.000000000
 0.015753708 0.021504588 0.031978418 0.007640771 0.000000000 0.000000000 0.000000000 0.000000000
11.850000 0.000000000 0.000000000 0.000000000 0.000000000 -0.009661474 0.032068016 0.025411329 0.007655942
 0.000000000 0.000000000 0.000000000 0.000000000 -0.010537849 -0.023536342 0.029701862 -0.013298317
 -0.009661474 0.032068016 -0.010537849 -0.023536342 0.000000000 0.000000000 0.000000000 0.000000000
 0.025411329 0.007655942 0.029701862 -0.013298317 0.000000000 0.000000000 0.000000000 0.000000000
11.900000 0.000000000 0.000000000 0.000000000 0.000000000 0.011468732 0.031103814 0.024790765 -0.009140957
 0.000000000 0.000000000 0.000000000 0.000000000 -0.022599737 -0.012181173 0.015283149 -0.028354834
 0.011468732 0.031103814 -0.022599737 -0.012181173 0.000000000 0.000000000 0.000000000 0.000000000
 0.024790765 -0.009140957 0.015283149 -0.028354834 0.000000000 0.000000000 0.000000000 0.000000000
11.950000 0.000000000 0.000000000 0.000000000 0.000000000 0.027596416 0.017753573 0.014232454 -0.022123136
 0.000000000 0.000000000 0.000000000 0.000000000 -0.025229071 0.004099989 -0.005114329 -0.031470762
 0.027596416 0.017753573 -0.025229071 0.004099989 0.000000000 0.000000000 0.000000000 0.000000000
 0.014232454 -0.022123136 -0.005114329 -0.031470762 0.000000000 0.000000000 0.000000000 0.000000000
12.000000 0.000000000 0.000000000 0.000000000 0.000000000 0.032391559 -0.002407089 -0.001940889 -0.026118030
 0.000000000 0.000000000 0.000000000 0.000000000 -0.017424971 0.018545506 -0.023000121 -0.021610435
 0.032391559 -0.002407089 -0.017424971 0.018545506 0.000000000 0.000000000 0.000000000 0.000000000
 -0.001940889 -0.026118030 -0.023000121 -0.021610435 0.000000000 0.000000000 0.000000000 0.000000000
12.050000 0.000000000 0.000000000 0.000000000 0.000000000 0.024171805 -0.021200430 -0.017193517 -0.019603297
 0.000000000 0.000000000 0.000000000 0.000000000 -0.002500048 0.025211633 -0.031087151 -0.003082679
 0.024171805 -0.021200430 -0.002500048 0.025211633 0.000000000 0.000000000 0.000000000 0.000000000
 -0.017193517 -0.019603297 -0.031087151 -0.003082679 0.000000000 0.000000000 0.000000000 0.000000000
12.100000 0.000000000 0.000000000 0.000000000 0.000000000 0.006478403 -0.031160106 -0.025417185 -0.005284410
 0.000000000 0.000000000 0.000000000 0.000000000 0.013324993 0.021417131 -0.026256254 0.016335727
 0.006478403 -0.031160106 0.013324993 0.021417131 0.000000000 0.000000000 0.000000000 0.000000000
 -0.025417185 -0.005284410 -0.026256254 0.016335727 0.000000000 0.000000000 0.000000000 0.000000000
12.150000 0.000000000 0.000000000 0.000000000 0.000000000 -0.013441993 -0.028493358 -0.023376406 0.011028025
 0.000000000 0.000000000 0.000000000 0.000000000 0.023513595 0.008819996 -0.010750639 0.028660578
 -0.013441993 -0.028493358 0.023513595 0.008819996 0.000000000 0.000000000 0.000000000 0.000000000
 -0.023376406 0.011028025 -0.010750639 0.028660578 0.000000000 0.000000000 0.000000000 0.000000000
12.200000 0.000000000 0.000000000 0.000000000 0.000000000 -0.027601646 -0.014518372 -0.011979943 0.022775705
 0.000000000 0.000000000 0.000000000 0.000000000 0.023912451 -0.007305354 0.008853285 0.028979257
 -0.027601646 -0.014518372 0.023912451 -0.007305354 0.000000000 0.000000000 0.000000000 0.000000000
 -0.011979943 0.022775705 0.008853285 0.028979257 0.000000000 0.000000000 0.000000000 0.000000000
12.250000 0.000000000 0.000000000 0.000000000 0.000000000 -0.030471076 0.004964968 0.004120532 0.025288593
 0.000000000 0.000000000 0.000000000 0.000000000 0.014443312 -0.020275972 0.024431201 0.017403232
 -0.030471076 0.004964968 0.014443312 -0.020275972 0.000000000 0.000000000 0.000000000 0.000000000
 0.004120532 0.025288593 0.024431201 0.017403232 0.000000000 0.000000000 0.000000000 0.000000000
12.300000 0.000000000 0.000000000 0.000000000 0.000000000 -0.021133483 0.022077924 0.018428605 0.017640273
 0.000000000 0.000000000 0.000000000 0.000000000 -0.000901108 -0.024769358 0.029674302 -0.001079550
 -0.021133483 0.022077924 -0.000901108 -0.024769358 0.000000000 0.000000000 0.000000000 0.000000000
 0.018428605 0.017640273 0.029674302 -0.001079550 0.000000000 0.000000000 0.000000000 0.000000000
12.350000 0.000000000 0.000000000 0.000000000 0.000000000 -0.003556861 0.030045583 0.025223750 0.002986042
 0.000000000 0.000000000 0.000000000 0.000000000 -0.015740111 -0.019006525 0.022639857 -0.018749029
 -0.003556861 0.030045583 -0.015740111 -0.019006525 0.000000000 0.000000000 0.000000000 0.000000000
 0.025223750 0.002986042 0.022639857 -0.018749029 0.000000000 0.000000000 0.000000000 0.000000000
12.400000 0.000000000 0.000000000 0.000000000 0.000000000 0.015086336 0.025875059 0.021847548 -0.012738114
 0.000000000 0.000000000 0.000000000 0.000000000 -0.023957740 -0.005454205 0.006459667 -0.028374257
 0.015086336 0.025875059 -0.023957740 -0.005454205 0.000000000 0.000000000 0.000000000 0.000000000
 0.021847548 -0.012738114 0.006459667 -0.028374257 0.000000000 0.000000000 0.000000000 0.000000000
12.450000 0.000000000 0.000000000 0.000000000 0.000000000 0.027342701 0.011472137 0.009742168 -0.023219491
 0.000000000 0.000000000 0.000000000 0.000000000 -0.022222640 0.010230069 -0.012046678 -0.026168834
 0.027342701 0.011472137 -0.022222640 0.010230069 0.000000000 0.000000000 0.000000000 0.000000000
 0.009742168 -0.023219491 -0.012046678 -0.026168834 0.000000000 0.000000000 0.000000000 0.000000000
12.500000 0.000000000 0.000000000 0.000000000 0.000000000 0.028454264 -0.007216990 -0.006163892 -0.024302238
 0.000000000 0.000000000 0.000000000 0.000000000 -0.011337216 0.021559246 -0.025242633 -0.013274175
 0.028454264 -0.007216990 -0.011337216 0.021559246 0.000000000 0.000000000 0.000000000 0.000000000
 -0.006163892 -0.024302238 -0.025242633 -0.013274175 0.000000000 0.000000000 0.000000000 0.000000000
12.550000 0.000000000 0.000000000 0.000000000 0.000000000 0.018200633 -0.022656897 -0.019461877 -0.015634025
 0.000000000 0.000000000 0.000000000 0.000000000 0.004129733 0.023899096 -0.027822566 0.004807703
 0.018200633 -0.022656897 0.004129733 0.023899096 0.000000000 0.000000000 0.000000000 0.000000000
 -0.019461877 -0.015634025 -0.027822566 0.004807703 0.000000000 0.000000000 0.000000000 0.000000000
12.600000 0.000000000 0.000000000 0.000000000 0.000000000 0.000895699 -0.028758061 -0.024844321 -0.000773801
 0.000000000 0.000000000 0.000000000 0.000000000 0.017760114 0.016362807 -0.018940449 0.020557874
 0.000895699 -0.028758061 0.017760114 0.016362807 0.000000000 0.000000000 0.000000000 0.000000000
 -0.024844321 -0.000773801 -0.018940449 0.020557874 0.000000000 0.000000000 0.000000000 0.000000000
12.650000 0.000000000 0.000000000 0.000000000 0.000000000 -0.016422516 -0.023274739 -0.020222440 0.014268832
 0.000000000 0.000000000 0.000000000 0.000000000 0.023949160 0.002143712 -0.002467276 0.027563957
 -0.016422516 -0.023274739 0.023949160 0.002143712 0.000000000 0.000000000 0.000000000 0.000000000
 -0.020222440 0.014268832 -0.002467276 0.027563957 0.000000000 0.000000000 0.000000000 0.000000000
12.700000 0.000000000 0.000000000 0.000000000 0.000000000 -0.026851195 -0.008622976 -0.007535032 0.023463433
 0.000000000 0.000000000 0.000000000 0.000000000 0.020209220 -0.012837144 0.014690632 0.023127124
 -0.026851195 -0.008622976 0.020209220 -0.012837144 0.000000000 0.000000000 0.000000000 0.000000000
 -0.007535032 0.023463433 0.014690632 0.023127124 0.000000000 0.000000000 0.000000000 0.000000000
12.750000 0.000000000 0.000000000 0.000000000 0.000000000 -0.026370843 0.009175434 0.008063654 0.023175508
 0.000000000 0.000000000 0.000000000 0.000000000 0.008168135 -0.022396098 0.025483971 0.009294321
 -0.026370843 0.009175434 0.008168135 -0.022396098 0.000000000 0.000000000 0.000000000 0.000000000
 0.008063654 0.023175508 0.025483971 0.009294321 0.000000000 0.000000000 0.000000000 0.000000000
12.800000 0.000000000 0.000000000 0.000000000 0.000000000 -0.015389444 0.022964589 0.020297354 0.013602028
 0.000000000 0.000000000 0.000000000 0.000000000 -0.007137822 -0.022638572 0.025613463 -0.008075789
 -0.015389444 0.022964589 -0.007137822 -0.022638572 0.000000000 0.000000000 0.000000000 0.000000000
 0.020297354 0.013602028 0.025613463 -0.008075789 0.000000000 0.000000000 0.000000000 0.000000000
12.850000 0.000000000 0.000000000 0.000000000 0.000000000 0.001508406 0.027328588 0.024292471 -0.001340827
 0.000000000 0.000000000 0.000000000 0.000000000 -0.019369924 -0.013544732 0.015237577 -0.021790812
 0.001508406 0.027328588 -0.019369924 -0.013544732 0.000000000 0.000000000 0.000000000 0.000000000
 0.024292471 -0.001340827 0.015237577 -0.021790812 0.000000000 0.000000000 0.000000000 0.000000000
12.900000 0.000000000 0.000000000 0.000000000 0.000000000 0.017471496 0.020714930 0.018518683 -0.015619125
 0.000000000 0.000000000 0.000000000 0.000000000 -0.023511456 0.001056028 -0.001181269 -0.026299828
 0.017471496 0.020714930 -0.023511456 0.001056028 0.000000000 0.000000000 0.000000000 0.000000000
 0.018518683 -0.015619125 -0.001181269 -0.026299828 0.000000000 0.000000000 0.000000000 0.000000000
12.950000 0.000000000 0.000000000 0.000000000 0.000000000 0.026156982 0.005976275 0.005373135 -0.023517156
 0.000000000 0.000000000 0.000000000 0.000000000 -0.017924311 0.015097087 -0.016791751 -0.019936334
 0.026156982 0.005976275 -0.017924311 0.015097087 0.000000000 0.000000000 0.000000000 0.000000000
 0.005373135 -0.023517156 -0.016791751 -0.019936334 0.000000000 0.000000000 0.000000000 0.000000000
13.000000 0.000000000 0.000000000 0.000000000 0.000000000 0.024247549 -0.010853689 -0.009813945 -0.021924721
 0.000000000 0.000000000 0.000000000 0.000000000 -0.004995001 0.022794751 -0.025209755 -0.005524199
 0.024247549 -0.010853689 -0.004995001 0.022794751 0.000000000 0.000000000 0.000000000 0.000000000
 -0.009813945 -0.021924721 -0.025209755 -0.005524199 0.000000000 0.000000000 0.000000000 0.000000000
13.050000 0.000000000 0.000000000 0.000000000 0.000000000 0.012713099 -0.023027367 -0.020940072 -0.011560732
 0.000000000 0.000000000 0.000000000 0.000000000 0.009883850 0.021029881 -0.023126129 0.010869067
 0.012713099 -0.023027367 0.009883850 0.021029881 0.000000000 0.000000000 0.000000000 0.000000000
 -0.020940072 -0.011560732 -0.023126129 0.010869067 0.000000000 0.000000000 0.000000000 0.000000000
13.100000 0.000000000 0.000000000 0.000000000 0.000000000 -0.003660632 -0.025785765 -0.023581977 0.003347775
 0.000000000 0.000000000 0.000000000 0.000000000 0.020562212 0.010610599 -0.011602183 0.022483796
 -0.003660632 -0.025785765 0.020562212 0.010610599 0.000000000 0.000000000 0.000000000 0.000000000
 -0.023581977 0.003347775 -0.011602183 0.022483796 0.000000000 0.000000000 0.000000000 0.000000000
13.150000 0.000000000 0.000000000 0.000000000 0.000000000 -0.018254268 -0.018215143 -0.016753203 0.016789188
 0.000000000 0.000000000 0.000000000 0.000000000 0.022674070 -0.004094588 0.004451896 0.024652684
 -0.018254268 -0.018215143 0.022674070 -0.004094588 0.000000000 0.000000000 0.000000000 0.000000000
 -0.016753203 0.016789188 0.004451896 0.024652684 0.000000000 0.000000000 0.000000000 0.000000000
13.200000 0.000000000 0.000000000 0.000000000 0.000000000 -0.025288165 -0.003535028 -0.003269807 0.023390876
 0.000000000 0.000000000 0.000000000 0.000000000 0.015421614 -0.016987902 0.018365830 0.016672497
 -0.025288165 -0.003535028 0.015421614 -0.016987902 0.000000000 0.000000000 0.000000000 0.000000000
 -0.003269807 0.023390876 0.018365830 0.016672497 0.000000000 0.000000000 0.000000000 0.000000000
13.250000 0.000000000 0.000000000 0.000000000 0.000000000 -0.022108338 0.012266009 0.011410253 0.020565918
 0.000000000 0.000000000 0.000000000 0.000000000 0.001873479 -0.022770300 0.024478046 0.002013988
 -0.022108338 0.012266009 0.001873479 -0.022770300 0.000000000 0.000000000 0.000000000 0.000000000
 0.011410253 0.020565918 0.024478046 0.002013988 0.000000000 0.000000000 0.000000000 0.000000000
13.300000 0.000000000 0.000000000 0.000000000 0.000000000 -0.010182085 0.022870648 0.021395985 0.009525560
 0.000000000 0.000000000 0.000000000 0.000000000 -0.012333012 -0.019118571 0.020436269 -0.013183033
 -0.010182085 0.022870648 -0.012333012 -0.019118571 0.000000000 0.000000000 0.000000000 0.000000000
 0.021395985 0.009525560 0.020436269 -0.013183033 0.000000000 0.000000000 0.000000000 0.000000000
13.350000 0.000000000 0.000000000 0.000000000 0.000000000 0.005567730 0.024155859 0.022726742 -0.005238331
 0.000000000 0.000000000 0.000000000 0.000000000 -0.021337040 -0.007617386 0.008096387 -0.022678769
 0.005567730 0.024155859 -0.021337040 -0.007617386 0.000000000 0.000000000 0.000000000 0.000000000
 0.022726742 -0.005238331 0.008096387 -0.022678769 0.000000000 0.000000000 0.000000000 0.000000000
13.400000 0.000000000 0.000000000 0.000000000 0.000000000 0.018791699 0.015792126 0.014942227 -0.017780370
 0.000000000 0.000000000 0.000000000 0.000000000 -0.021471486 0.006927044 -0.007321047 -0.022692763
 0.018791699 0.015792126 -0.021471486 0.006927044 0.000000000 0.000000000 0.000000000 0.000000000
 0.014942227 -0.017780370 -0.007321047 -0.022692763 0.000000000 0.000000000 0.000000000 0.000000000
13.450000 0.000000000 0.000000000 0.000000000 0.000000000 0.024271127 0.001300117 0.001237133 -0.023095318
 0.000000000 0.000000000 0.000000000 0.000000000 -0.012755494 0.018494977 -0.019436578 -0.013404891
 0.024271127 0.001300117 -0.012755494 0.018494977 0.000000000 0.000000000 0.000000000 0.000000000
 0.001237133 -0.023095318 -0.019436578 -0.013404891 0.000000000 0.000000000 0.000000000 0.000000000
13.500000 0.000000000 0.000000000 0.000000000 0.000000000 0.019974567 -0.013427303 -0.012849356 -0.019114808
 0.000000000 0.000000000 0.000000000 0.000000000 0.001144694 0.022344070 -0.023349077 0.001196181
 0.019974567 -0.013427303 0.001144694 0.022344070 0.000000000 0.000000000 0.000000000 0.000000000
 -0.012849356 -0.019114808 -0.023349077 0.001196181 0.000000000 0.000000000 0.000000000 0.000000000
13.550000 0.000000000 0.000000000 0.000000000 0.000000000 0.007804448 -0.022518840 -0.021671878 -0.007510912
 0.000000000 0.000000000 0.000000000 0.000000000 0.014457370 0.016952742 -0.017615275 0.015022381
 0.007804448 -0.022518840 0.014457370 0.016952742 0.000000000 0.000000000 0.000000000 0.000000000
 -0.021671878 -0.007510912 -0.017615275 0.015022381 0.000000000 0.000000000 0.000000000 0.000000000
13.600000 0.000000000 0.000000000 0.000000000 0.000000000 -0.007237786 -0.022462912 -0.021740725 0.007005089
 0.000000000 0.000000000 0.000000000 0.000000000 0.021701432 0.004619943 -0.004773409 0.022422314
 -0.007237786 -0.022462912 0.021701432 0.004619943 0.000000000 0.000000000 0.000000000 0.000000000
 -0.021740725 0.007005089 -0.004773409 0.022422314 0.000000000 0.000000000 0.000000000 0.000000000
13.650000 0.000000000 0.000000000 0.000000000 0.000000000 -0.019104399 -0.013460086 -0.013101251 0.018595091
 0.000000000 0.000000000 0.000000000 0.000000000 0.019942403 -0.009514349 0.009774941 0.020488613
 -0.019104399 -0.013460086 0.019942403 -0.009514349 0.000000000 0.000000000 0.000000000 0.000000000
 -0.013101251 0.018595091 0.009774941 0.020488613 0.000000000 0.000000000 0.000000000 0.000000000
13.700000 0.000000000 0.000000000 0.000000000 0.000000000 -0.023130555 0.000729428 0.000714010 0.022641625
 0.000000000 0.000000000 0.000000000 0.000000000 0.009980098 -0.019610887 0.020034371 0.010195611
 -0.023130555 0.000729428 0.009980098 -0.019610887 0.000000000 0.000000000 0.000000000 0.000000000
 0.000714010 0.022641625 0.020034371 0.010195611 0.000000000 0.000000000 0.000000000 0.000000000
13.750000 0.000000000 0.000000000 0.000000000 0.000000000 -0.017865165 0.014352945 0.014129242 0.017586721
 0.000000000 0.000000000 0.000000000 0.000000000 -0.004012292 -0.021542933 0.021884015 -0.004075818
 -0.017865165 0.014352945 -0.004012292 -0.021542933 0.000000000 0.000000000 0.000000000 0.000000000
 0.014129242 0.017586721 0.021884015 -0.004075818 0.000000000 0.000000000 0.000000000 0.000000000
13.800000 0.000000000 0.000000000 0.000000000 0.000000000 -0.005586044 0.021995293 0.021775277 0.005530167
 0.000000000 0.000000000 0.000000000 0.000000000 -0.016235889 -0.014582158 0.014729495 -0.016399936
 -0.005586044 0.021995293 -0.016235889 -0.014582158 0.000000000 0.000000000 0.000000000 0.000000000
 0.021775277 0.005530167 0.014729495 -0.016399936 0.000000000 0.000000000 0.000000000 0.000000000
13.850000 0.000000000 0.000000000 0.000000000 0.000000000 0.008679992 0.020728838 0.020637868 -0.008641899
 0.000000000 0.000000000 0.000000000 0.000000000 -0.021668868 -0.001670266 0.001677628 -0.021764383
 0.008679992 0.020728838 -0.021668868 -0.001670266 0.000000000 0.000000000 0.000000000 0.000000000
 0.020637868 -0.008641899 0.001677628 -0.021764383 0.000000000 0.000000000 0.000000000 0.000000000
13.900000 0.000000000 0.000000000 0.000000000 0.000000000 0.019212604 0.011230899 0.011245021 -0.019236763
 0.000000000 0.000000000 0.000000000 0.000000000 -0.018128897 0.011823608 -0.011808760 -0.018106129
 0.019212604 0.011230899 -0.018128897 0.011823608 0.000000000 0.000000000 0.000000000 0.000000000
 0.011245021 -0.019236763 -0.011808760 -0.018106129 0.000000000 0.000000000 0.000000000 0.000000000
13.950000 0.000000000 0.000000000 0.000000000 0.000000000 0.021889473 -0.002556205 -0.002573934 -0.022041287
 0.000000000 0.000000000 0.000000000 0.000000000 -0.007148529 0.020335103 -0.020195040 -0.007099292
 0.021889473 -0.002556205 -0.007148529 0.020335103 0.000000000 0.000000000 0.000000000 0.000000000
 -0.002573934 -0.022041287 -0.020195040 -0.007099292 0.000000000 0.000000000 0.000000000 0.000000000
14.000000 0.000000000 0.000000000 0.000000000 0.000000000 0.015796789 -0.015058619 -0.015249050 -0.015996556
 0.000000000 0.000000000 0.000000000 0.000000000 0.006687073 0.020398579 -0.020143841 0.006603564
 0.015796789 -0.015058619 0.006687073 0.020398579 0.000000000 0.000000000 0.000000000 0.000000000
 -0.015249050 -0.015996556 -0.020143841 0.006603564 0.000000000 0.000000000 0.000000000 0.000000000
14.050000 0.000000000 0.000000000 0.000000000 0.000000000 0.003530753 -0.021322265 -0.021714366 -0.003595681
 0.000000000 0.000000000 0.000000000 0.000000000 0.017654382 0.012057374 -0.011839651 0.017335593
 0.003530753 -0.021322265 0.017654382 0.012057374 0.000000000 0.000000000 0.000000000 0.000000000
 -0.021714366 -0.003595681 -0.011839651 0.017335593 0.000000000 0.000000000 0.000000000 0.000000000
14.100000 0.000000000 0.000000000 0.000000000 0.000000000 -0.009904461 -0.018973527 -0.019432036 0.010143809
 0.000000000 0.000000000 0.000000000 0.000000000 0.021258716 -0.001183153 0.001155236 0.020757105
 -0.009904461 -0.018973527 0.021258716 -0.001183153 0.000000000 0.000000000 0.000000000 0.000000000
 -0.019432036 0.010143809 0.001155236 0.020757105 0.000000000 0.000000000 0.000000000 0.000000000
14.150000 0.000000000 0.000000000 0.000000000 0.000000000 -0.019136086 -0.009114296 -0.009387504 0.019709705
 0.000000000 0.000000000 0.000000000 0.000000000 0.016075580 -0.013828248 0.013425800 0.015607727
 -0.019136086 -0.009114296 0.016075580 -0.013828248 0.000000000 0.000000000 0.000000000 0.000000000
 -0.009387504 0.019709705 0.013425800 0.015607727 0.000000000 0.000000000 0.000000000 0.000000000
14.200000 0.000000000 0.000000000 0.000000000 0.000000000 -0.020569270 0.004184229 0.004334107 0.021306055
 0.000000000 0.000000000 0.000000000 0.000000000 0.004312079 -0.020673621 0.019958706 0.004162963
 -0.020569270 0.004184229 0.004312079 -0.020673621 0.000000000 0.000000000 0.000000000 0.000000000
 0.004334107 0.021306055 0.019958706 0.004162963 0.000000000 0.000000000 0.000000000 0.000000000
14.250000 0.000000000 0.000000000 0.000000000 0.000000000 -0.013783972 0.015560169 0.016208996 0.014358736
 0.000000000 0.000000000 0.000000000 0.000000000 -0.009132167 -0.018946759 0.018188341 -0.008766617
 -0.013783972 0.015560169 -0.009132167 -0.018946759 0.000000000 0.000000000 0.000000000 0.000000000
 0.016208996 0.014358736 0.018188341 -0.008766617 0.000000000 0.000000000 0.000000000 0.000000000
14.300000 0.000000000 0.000000000 0.000000000 0.000000000 -0.001640678 0.020520890 0.021497910 0.001718793
 0.000000000 0.000000000 0.000000000 0.000000000 -0.018705357 -0.009428914 0.009000396 -0.017855250
 -0.001640678 0.020520890 -0.018705357 -0.009428914 0.000000000 0.000000000 0.000000000 0.000000000
 0.021497910 0.001718793 0.009000396 -0.017855250 0.000000000 0.000000000 0.000000000 0.000000000
14.350000 0.000000000 0.000000000 0.000000000 0.000000000 0.010922049 0.017214933 0.018136950 -0.011507024
 0.000000000 0.000000000 0.000000000 0.000000000 -0.020495615 0.003895892 -0.003697839 -0.019453692
 0.010922049 0.017214933 -0.020495615 0.003895892 0.000000000 0.000000000 0.000000000 0.000000000
 0.018136950 -0.011507024 -0.003697839 -0.019453692 0.000000000 0.000000000 0.000000000 0.000000000
14.400000 0.000000000 0.000000000 0.000000000 0.000000000 0.018894064 0.007118042 0.007541870 -0.020019070
 0.000000000 0.000000000 0.000000000 0.000000000 -0.013828771 0.015508095 -0.014636591 -0.013051640
 0.018894064 0.007118042 -0.013828771 0.015508095 0.000000000 0.000000000 0.000000000 0.000000000
 0.007541870 -0.020019070 -0.014636591 -0.013051640 0.000000000 0.000000000 0.000000000 0.000000000
14.450000 0.000000000 0.000000000 0.000000000 0.000000000 0.019189746 -0.005618747 -0.005987126 -0.020447874
 0.000000000 0.000000000 0.000000000 0.000000000 -0.001519522 0.020638523 -0.019368665 -0.001426028
 0.019189746 -0.005618747 -0.001519522 0.020638523 0.000000000 0.000000000 0.000000000 0.000000000
 -0.005987126 -0.020447874 -0.019368665 -0.001426028 0.000000000 0.000000000 0.000000000 0.000000000
14.500000 0.000000000 0.000000000 0.000000000 0.000000000 0.011839258 -0.015873474 -0.017010309 -0.012687168
 0.000000000 0.000000000 0.000000000 0.000000000 0.011316367 0.017226508 -0.016075224 0.010560070
 0.011839258 -0.015873474 0.011316367 0.017226508 0.000000000 0.000000000 0.000000000 0.000000000
 -0.017010309 -0.012687168 -0.016075224 0.010560070 0.000000000 0.000000000 0.000000000 0.000000000
14.550000 0.000000000 0.000000000 0.000000000 0.000000000 -0.000083669 -0.019611158 -0.021135167 0.000090170
 0.000000000 0.000000000 0.000000000 0.000000000 0.019387781 0.006746478 -0.006260004 0.017989771
 -0.000083669 -0.019611158 0.019387781 0.006746478 0.000000000 0.000000000 0.000000000 0.000000000
 -0.021135167 0.000090170 -0.006260004 0.017989771 0.000000000 0.000000000 0.000000000 0.000000000
14.600000 0.000000000 0.000000000 0.000000000 0.000000000 -0.011744199 -0.015469168 -0.016766125 0.012728849
 0.000000000 0.000000000 0.000000000 0.000000000 0.019408807 -0.006428079 0.005930830 0.017907423
 -0.011744199 -0.015469168 0.019408807 -0.006428079 0.000000000 0.000000000 0.000000000 0.000000000
 -0.016766125 0.012728849 0.005930830 0.017907423 0.000000000 0.000000000 0.000000000 0.000000000
14.650000 0.000000000 0.000000000 0.000000000 0.000000000 -0.018505138 -0.005248098 -0.005720476 0.020170771
 0.000000000 0.000000000 0.000000000 0.000000000 0.011435679 -0.016849349 0.015457988 0.010491360
 -0.018505138 -0.005248098 0.011435679 -0.016849349 0.000000000 0.000000000 0.000000000 0.000000000
 -0.005720476 0.020170771 0.015457988 0.010491360 0.000000000 0.000000000 0.000000000 0.000000000
14.700000 0.000000000 0.000000000 0.000000000 0.000000000 -0.017769144 0.006866070 0.007526689 0.019478804
 0.000000000 0.000000000 0.000000000 0.000000000 -0.001183516 -0.020247466 0.018470340 -0.001079639
 -0.017769144 0.006866070 -0.001183516 -0.020247466 0.000000000 0.000000000 0.000000000 0.000000000
 0.007526689 0.019478804 0.018470340 -0.001079639 0.000000000 0.000000000 0.000000000 0.000000000
14.750000 0.000000000 0.000000000 0.000000000 0.000000000 -0.009973338 0.016014339 0.017655162 0.010995202
 0.000000000 0.000000000 0.000000000 0.000000000 -0.013214320 -0.015279370 0.013859347 -0.011986217
 -0.009973338 0.016014339 -0.013214320 -0.015279370 0.000000000 0.000000000 0.000000000 0.000000000
 0.017655162 0.010995202 0.013859347 -0.011986217 0.000000000 0.000000000 0.000000000 0.000000000
14.800000 0.000000000 0.000000000 0.000000000 0.000000000 0.001643201 0.018611906 0.020635824 -0.001821888
 0.000000000 0.000000000 0.000000000 0.000000000 -0.019706760 -0.004058208 0.003660187 -0.017773963
 0.001643201 0.018611906 -0.019706760 -0.004058208 0.000000000 0.000000000 0.000000000 0.000000000
 0.020635824 -0.001821888 0.003660187 -0.017773963 0.000000000 0.000000000 0.000000000 0.000000000
14.850000 0.000000000 0.000000000 0.000000000 0.000000000 0.012382801 0.013750591 0.015332820 -0.013807643
 0.000000000 0.000000000 0.000000000 0.000000000 -0.018031446 0.008744783 -0.007842389 -0.016170740
 0.012382801 0.013750591 -0.018031446 0.008744783 0.000000000 0.000000000 0.000000000 0.000000000
 0.015332820 -0.013807643 -0.007842389 -0.016170740 0.000000000 0.000000000 0.000000000 0.000000000
14.900000 0.000000000 0.000000000 0.000000000 0.000000000 0.017987225 0.003508774 0.003934842 -0.020171401
 0.000000000 0.000000000 0.000000000 0.000000000 -0.008943617 0.017844476 -0.015912261 -0.007975195
 0.017987225 0.003508774 -0.008943617 0.017844476 0.000000000 0.000000000 0.000000000 0.000000000
 0.003934842 -0.020171401 -0.015912261 -0.007975195 0.000000000 0.000000000 0.000000000 0.000000000
14.950000 0.000000000 0.000000000 0.000000000 0.000000000 0.016324191 -0.007933411 -0.008947562 -0.018410959
 0.000000000 0.000000000 0.000000000 0.000000000 0.003755108 0.019523120 -0.017310295 0.003329490
 0.016324191 -0.007933411 0.003755108 0.019523120 0.000000000 0.000000000 0.000000000 0.000000000
 -0.008947562 -0.018410959 -0.017310295 0.003329490 0.000000000 0.000000000 0.000000000 0.000000000
15.000000 0.000000000 0.000000000 0.000000000 0.000000000 0.008195166 -0.015998390 -0.018146612 -0.009295591
 0.000000000 0.000000000 0.000000000 0.000000000 0.014806628 0.013148612 -0.011592061 0.013053798
 0.008195166 -0.015998390 0.014806628 0.013148612 0.000000000 0.000000000 0.000000000 0.000000000
 -0.018146612 -0.009295591 -0.011592061 0.013053798 0.000000000 0.000000000 0.000000000 0.000000000
15.050000 0.000000000 0.000000000 0.000000000 0.000000000 -0.003040102 -0.017540810 -0.020009913 0.003468037
 0.000000000 0.000000000 0.000000000 0.000000000 0.019673146 0.001410013 -0.001236026 0.017245598
 -0.003040102 -0.017540810 0.019673146 0.001410013 0.000000000 0.000000000 0.000000000 0.000000000
 -0.020009913 0.003468037 -0.001236026 0.017245598 0.000000000 0.000000000 0.000000000 0.000000000
15.100000 0.000000000 0.000000000 0.000000000 0.000000000 -0.012850063 -0.012071891 -0.013849976 0.014742765
 0.000000000 0.000000000 0.000000000 0.000000000 0.016399878 -0.010816307 0.009427691 0.014294432
 -0.012850063 -0.012071891 0.016399878 -0.010816307 0.000000000 0.000000000 0.000000000 0.000000000
 -0.013849976 0.014742765 0.009427691 0.014294432 0.000000000 0.000000000 0.000000000 0.000000000
15.150000 0.000000000 0.000000000 0.000000000 0.000000000 -0.017357511 -0.001902867 -0.002195645 0.020028167
 0.000000000 0.000000000 0.000000000 0.000000000 0.006399259 -0.018492008 0.016026191 0.005545949
 -0.017357511 -0.001902867 0.006399259 -0.018492008 0.000000000 0.000000000 0.000000000 0.000000000
 -0.002195645 0.020028167 0.016026191 0.005545949 0.000000000 0.000000000 0.000000000 0.000000000
15.200000 0.000000000 0.000000000 0.000000000 0.000000000 -0.014870146 0.008828750 0.010245545 0.017256435
 0.000000000 0.000000000 0.000000000 0.000000000 -0.006157502 -0.018492562 0.015935336 -0.005306017
 -0.014870146 0.008828750 -0.006157502 -0.018492562 0.000000000 0.000000000 0.000000000 0.000000000
 0.010245545 0.017256435 0.015935336 -0.005306017 0.000000000 0.000000000 0.000000000 0.000000000
15.250000 0.000000000 0.000000000 0.000000000 0.000000000 -0.006512083 0.015840992 0.018488532 0.007600462
 0.000000000 0.000000000 0.000000000 0.000000000 -0.016079850 -0.010878463 0.009320678 -0.013777231
 -0.006512083 0.015840992 -0.016079850 -0.010878463 0.000000000 0.000000000 0.000000000 0.000000000
 0.018488532 0.007600462 0.009320678 -0.013777231 0.000000000 0.000000000 0.000000000 0.000000000
15.300000 0.000000000 0.000000000 0.000000000 0.000000000 0.004277677 0.016414378 0.019267744 -0.005021280
 0.000000000 0.000000000 0.000000000 0.000000000 -0.019303084 0.001155039 -0.000983989 -0.016444484
 0.004277677 0.016414378 -0.019303084 0.001155039 0.000000000 0.000000000 0.000000000 0.000000000
 0.019267744 -0.005021280 -0.000983989 -0.016444484 0.000000000 0.000000000 0.000000000 0.000000000
15.350000 0.000000000 0.000000000 0.000000000 0.000000000 0.013158395 0.010444172 0.012330170 -0.015534525
 0.000000000 0.000000000 0.000000000 0.000000000 -0.014552909 0.012618400 -0.010688314 -0.012326925
 0.013158395 0.010444172 -0.014552909 0.012618400 0.000000000 0.000000000 0.000000000 0.000000000
 0.012330170 -0.015534525 -0.010688314 -0.012326925 0.000000000 0.000000000 0.000000000 0.000000000
15.400000 0.000000000 0.000000000 0.000000000 0.000000000 0.016632403 0.000431802 0.000512709 -0.019748815
 0.000000000 0.000000000 0.000000000 0.000000000 -0.003847933 0.018796269 -0.015830171 -0.003240719
 0.016632403 0.000431802 -0.003847933 0.018796269 0.000000000 0.000000000 0.000000000 0.000000000
 0.000512709 -0.019748815 -0.015830171 -0.003240719 0.000000000 0.000000000 0.000000000 0.000000000
15.450000 0.000000000 0.000000000 0.000000000 0.000000000 0.013420838 -0.009560695 -0.011417444 -0.016027253
 0.000000000 0.000000000 0.000000000 0.000000000 0.008357505 0.017186634 -0.014391676 0.006998374
 0.013420838 -0.009560695 0.008357505 0.017186634 0.000000000 0.000000000 0.000000000 0.000000000
 -0.011417444 -0.016027253 -0.014391676 0.006998374 0.000000000 0.000000000 0.000000000 0.000000000
15.500000 0.000000000 0.000000000 0.000000000 0.000000000 0.004929926 -0.015557163 -0.018685546 -0.005921283
 0.000000000 0.000000000 0.000000000 0.000000000 0.017026428 0.008513369 -0.007088038 0.014175819
 0.004929926 -0.015557163 0.017026428 0.008513369 0.000000000 0.000000000 0.000000000 0.000000000
 -0.018685546 -0.005921283 -0.007088038 0.014175819 0.000000000 0.000000000 0.000000000 0.000000000
15.550000 0.000000000 0.000000000 0.000000000 0.000000000 -0.005360219 -0.015247963 -0.018419836 0.006475248
 0.000000000 0.000000000 0.000000000 0.000000000 0.018617492 -0.003597263 0.002977819 0.015411583
 -0.005360219 -0.015247963 0.018617492 -0.003597263 0.000000000 0.000000000 0.000000000 0.000000000
 -0.018419836 0.006475248 0.002977819 0.015411583 0.000000000 0.000000000 0.000000000 0.000000000
15.600000 0.000000000 0.000000000 0.000000000 0.000000000 -0.013320305 -0.008877036 -0.010785570 0.016184129
 0.000000000 0.000000000 0.000000000 0.000000000 0.012531081 -0.014132369 0.011631610 0.010313673
 -0.013320305 -0.008877036 0.012531081 -0.014132369 0.000000000 0.000000000 0.000000000 0.000000000
 -0.010785570 0.016184129 0.011631610 0.010313673 0.000000000 0.000000000 0.000000000 0.000000000
15.650000 0.000000000 0.000000000 0.000000000 0.000000000 -0.015827501 0.000904245 0.001105007 0.019341559
 0.000000000 0.000000000 0.000000000 0.000000000 0.001332975 -0.018767022 0.015357348 0.001090794
 -0.015827501 0.000904245 0.001332975 -0.018767022 0.000000000 0.000000000 0.000000000 0.000000000
 0.001105007 0.019341559 0.015357348 0.001090794 0.000000000 0.000000000 0.000000000 0.000000000
15.700000 0.000000000 0.000000000 0.000000000 0.000000000 -0.011988719 0.010138365 0.012461029 0.014735293
 0.000000000 0.000000000 0.000000000 0.000000000 -0.010326789 -0.015639271 0.012724201 -0.008401935
 -0.011988719 0.010138365 -0.010326789 -0.015639271 0.000000000 0.000000000 0.000000000 0.000000000
 0.012461029 0.014735293 0.012724201 -0.008401935 0.000000000 0.000000000 0.000000000 0.000000000
15.750000 0.000000000 0.000000000 0.000000000 0.000000000 -0.003453136 0.015161512 0.018742965 0.004268837
 0.000000000 0.000000000 0.000000000 0.000000000 -0.017644517 -0.006097281 0.004932197 -0.014272958
 -0.003453136 0.015161512 -0.017644517 -0.006097281 0.000000000 0.000000000 0.000000000 0.000000000
 0.018742965 0.004268837 0.004932197 -0.014272958 0.000000000 0.000000000 0.000000000 0.000000000
15.800000 0.000000000 0.000000000 0.000000000 0.000000000 0.006292883 0.014055764 0.017476847 -0.007824531
 0.000000000 0.000000000 0.000000000 0.000000000 -0.017641512 0.005880820 -0.004729653 -0.014188196
 0.006292883 0.014055764 -0.017641512 0.005880820 0.000000000 0.000000000 0.000000000 0.000000000
 0.017476847 -0.007824531 -0.004729653 -0.014188196 0.000000000 0.000000000 0.000000000 0.000000000
15.850000 0.000000000 0.000000000 0.000000000 0.000000000 0.013348306 0.007378661 0.009227885 -0.016693628
 0.000000000 0.000000000 0.000000000 0.000000000 -0.010375942 0.015345112 -0.012270026 -0.008296653
 0.013348306 0.007378661 -0.010375942 0.015345112 0.000000000 0.000000000 0.000000000 0.000000000
 0.009227885 -0.016693628 -0.012270026 -0.008296653 0.000000000 0.000000000 0.000000000 0.000000000
15.900000 0.000000000 0.000000000 0.000000000 0.000000000 0.014957564 -0.002106227 -0.002649409 -0.018815018
 0.000000000 0.000000000 0.000000000 0.000000000 0.001104858 0.018419060 -0.014642786 0.000878340
 0.014957564 -0.002106227 0.001104858 0.018419060 0.000000000 0.000000000 0.000000000 0.000000000
 -0.002649409 -0.018815018 -0.014642786 0.000878340 0.000000000 0.000000000 0.000000000 0.000000000
15.950000 0.000000000 0.000000000 0.000000000 0.000000000 0.010584907 -0.010571279 -0.013374999 -0.013392241
 0.000000000 0.000000000 0.000000000 0.000000000 0.012042105 0.013886826 -0.010975815 0.009517792
 0.010584907 -0.010571279 0.012042105 0.013886826 0.000000000 0.000000000 0.000000000 0.000000000
 -0.013374999 -0.013392241 -0.010975815 0.009517792 0.000000000 0.000000000 0.000000000 0.000000000
16.000000 0.000000000 0.000000000 0.000000000 0.000000000 0.002084865 -0.014668175 -0.018666726 -0.002653200
 0.000000000 0.000000000 0.000000000 0.000000000 0.017937747 0.003672991 -0.002886209 0.014095348
 0.002084865 -0.014668175 0.017937747 0.003672991 0.000000000 0.000000000 0.000000000 0.000000000
 -0.018666726 -0.002653200 -0.002886209 0.014095348 0.000000000 0.000000000 0.000000000 0.000000000
16.050000 0.000000000 0.000000000 0.000000000 0.000000000 -0.007081570 -0.012850843 -0.016449513 0.009064649
 0.000000000 0.000000000 0.000000000 0.000000000 0.016403907 -0.007974097 0.006229599 0.012815215
 -0.007081570 -0.012850843 0.016403907 -0.007974097 0.000000000 0.000000000 0.000000000 0.000000000
 -0.016449513 0.009064649 0.006229599 0.012815215 0.000000000 0.000000000 0.000000000 0.000000000
16.100000 0.000000000 0.000000000 0.000000000 0.000000000 -0.013254823 -0.005955886 -0.007668328 0.017065863
 0.000000000 0.000000000 0.000000000 0.000000000 0.008129350 -0.016249060 0.012620424 0.006313956
 -0.013254823 -0.005955886 0.008129350 -0.016249060 0.000000000 0.000000000 0.000000000 0.000000000
 -0.007668328 0.017065863 0.012620424 0.006313956 0.000000000 0.000000000 0.000000000 0.000000000
16.150000 0.000000000 0.000000000 0.000000000 0.000000000 -0.014036491 0.003176111 0.004113264 0.018178140
 0.000000000 0.000000000 0.000000000 0.000000000 -0.003427913 -0.017771733 0.013722678 -0.002646908
 -0.014036491 0.003176111 -0.003427913 -0.017771733 0.000000000 0.000000000 0.000000000 0.000000000
 0.004113264 0.018178140 0.013722678 -0.002646908 0.000000000 0.000000000 0.000000000 0.000000000
16.200000 0.000000000 0.000000000 0.000000000 0.000000000 -0.009219236 0.010869247 0.014158938 0.012009534
 0.000000000 0.000000000 0.000000000 0.000000000 -0.013485414 -0.011967375 0.009186873 -0.010352210
 -0.009219236 0.010869247 -0.013485414 -0.011967375 0.000000000 0.000000000 0.000000000 0.000000000
 0.014158938 0.012009534 0.009186873 -0.010352210 0.000000000 0.000000000 0.000000000 0.000000000
16.250000 0.000000000 0.000000000 0.000000000 0.000000000 -0.000827071 0.014090763 0.018463323 0.001083723
 0.000000000 0.000000000 0.000000000 0.000000000 -0.017914909 -0.001281502 0.000978012 -0.013672226
 -0.000827071 0.014090763 -0.017914909 -0.001281502 0.000000000 0.000000000 0.000000000 0.000000000
 0.018463323 0.001083723 0.000978012 -0.013672226 0.000000000 0.000000000 0.000000000 0.000000000
16.300000 0.000000000 0.000000000 0.000000000 0.000000000 0.007732813 0.011645140 0.015348579 -0.010192037
 0.000000000 0.000000000 0.000000000 0.000000000 -0.014936441 0.009850015 -0.007473317 -0.011332446
 0.007732813 0.011645140 -0.014936441 0.009850015 0.000000000 0.000000000 0.000000000 0.000000000
 0.015348579 -0.010192037 -0.007473317 -0.011332446 0.000000000 0.000000000 0.000000000 0.000000000
16.350000 0.000000000 0.000000000 0.000000000 0.000000000 0.013052122 0.004614282 0.006117582 -0.017304408
 0.000000000 0.000000000 0.000000000 0.000000000 -0.005832795 0.016842040 -0.012703374 -0.004399478
 0.013052122 0.004614282 -0.005832795 0.016842040 0.000000000 0.000000000 0.000000000 0.000000000
 0.006117582 -0.017304408 -0.012703374 -0.004399478 0.000000000 0.000000000 0.000000000 0.000000000
16.400000 0.000000000 0.000000000 0.000000000 0.000000000 0.013077305 -0.004116772 -0.005490207 -0.017440146
 0.000000000 0.000000000 0.000000000 0.000000000 0.005602090 0.016848435 -0.012633617 0.004200667
 0.013077305 -0.004116772 0.005602090 0.016848435 0.000000000 0.000000000 0.000000000 0.000000000
 -0.005490207 -0.017440146 -0.012633617 0.004200667 0.000000000 0.000000000 0.000000000 0.000000000
16.450000 0.000000000 0.000000000 0.000000000 0.000000000 0.007900312 -0.011042283 -0.014813280 -0.010598309
 0.000000000 0.000000000 0.000000000 0.000000000 0.014643930 0.009920044 -0.007394711 0.010916044
 0.007900312 -0.011042283 0.014643930 0.009920044 0.000000000 0.000000000 0.000000000 0.000000000
 -0.014813280 -0.010598309 -0.007394711 0.010916044 0.000000000 0.000000000 0.000000000 0.000000000
16.500000 0.000000000 0.000000000 0.000000000 0.000000000 -0.000319380 -0.013442314 -0.018139746 0.000430988
 0.000000000 0.000000000 0.000000000 0.000000000 0.017589580 -0.001038529 0.000769593 0.013034618
 -0.000319380 -0.013442314 0.017589580 -0.001038529 0.000000000 0.000000000 0.000000000 0.000000000
 -0.018139746 0.000430988 0.000769593 0.013034618 0.000000000 0.000000000 0.000000000 0.000000000
16.550000 0.000000000 0.000000000 0.000000000 0.000000000 -0.008253674 -0.010449493 -0.014184747 0.011204016
 0.000000000 0.000000000 0.000000000 0.000000000 0.013273240 -0.011486247 0.008461586 0.009778012
 -0.008253674 -0.010449493 0.013273240 -0.011486247 0.000000000 0.000000000 0.000000000 0.000000000
 -0.014184747 0.011204016 0.008461586 0.009778012 0.000000000 0.000000000 0.000000000 0.000000000
16.600000 0.000000000 0.000000000 0.000000000 0.000000000 -0.012752237 -0.003358237 -0.004585762 0.017413517
 0.000000000 0.000000000 0.000000000 0.000000000 0.003526758 -0.017127063 0.012542462 0.002582709
 -0.012752237 -0.003358237 0.003526758 -0.017127063 0.000000000 0.000000000 0.000000000 0.000000000
 -0.004585762 0.017413517 0.012542462 0.002582709 0.000000000 0.000000000 0.000000000 0.000000000
16.650000 0.000000000 0.000000000 0.000000000 0.000000000 -0.012092140 0.004931886 0.006774722 0.016610459
 0.000000000 0.000000000 0.000000000 0.000000000 -0.007597224 -0.015676051 0.011411906 -0.005530654
 -0.012092140 0.004931886 -0.007597224 -0.015676051 0.000000000 0.000000000 0.000000000 0.000000000
 0.006774722 0.016610459 0.011411906 -0.005530654 0.000000000 0.000000000 0.000000000 0.000000000
16.700000 0.000000000 0.000000000 0.000000000 0.000000000 -0.006635558 0.011100509 0.015339260 0.009169359
 0.000000000 0.000000000 0.000000000 0.000000000 -0.015510087 -0.007784336 0.005633263 -0.011224131
 -0.006635558 0.011100509 -0.015510087 -0.007784336 0.000000000 0.000000000 0.000000000 0.000000000
 0.015339260 0.009169359 0.005633263 -0.011224131 0.000000000 0.000000000 0.000000000 0.000000000
16.750000 0.000000000 0.000000000 0.000000000 0.000000000 0.001354627 0.012735259 0.017703420 -0.001883081
 0.000000000 0.000000000 0.000000000 0.000000000 -0.016979696 0.003251304 -0.002338881 -0.012214635
 0.001354627 0.012735259 -0.016979696 0.003251304 0.000000000 0.000000000 0.000000000 0.000000000
 0.017703420 -0.001883081 -0.002338881 -0.012214635 0.000000000 0.000000000 0.000000000 0.000000000
16.800000 0.000000000 0.000000000 0.000000000 0.000000000 0.008651650 0.009273664 0.012968613 -0.012098767
 0.000000000 0.000000000 0.000000000 0.000000000 -0.011450145 0.012865357 -0.009199827 -0.008187830
 0.008651650 0.009273664 -0.011450145 0.012865357 0.000000000 0.000000000 0.000000000 0.000000000
 0.012968613 -0.012098767 -0.009199827 -0.008187830 0.000000000 0.000000000 0.000000000 0.000000000
16.850000 0.000000000 0.000000000 0.000000000 0.000000000 0.012366904 0.002191026 0.003082389 -0.017398066
 0.000000000 0.000000000 0.000000000 0.000000000 -0.001250116 0.017112049 -0.012163597 -0.000888608
 0.012366904 0.002191026 -0.001250116 0.017112049 0.000000000 0.000000000 0.000000000 0.000000000
 0.003082389 -0.017398066 -0.012163597 -0.000888608 0.000000000 0.000000000 0.000000000 0.000000000
16.900000 0.000000000 0.000000000 0.000000000 0.000000000 0.011092239 -0.005625835 -0.007962141 -0.015698643
 0.000000000 0.000000000 0.000000000 0.000000000 0.009387382 0.014284371 -0.010092952 0.006632872
 0.011092239 -0.005625835 0.009387382 0.014284371 0.000000000 0.000000000 0.000000000 0.000000000
 -0.007962141 -0.015698643 -0.010092952 0.006632872 0.000000000 0.000000000 0.000000000 0.000000000
16.950000 0.000000000 0.000000000 0.000000000 0.000000000 0.005431274 -0.011054079 -0.015738871 -0.007733084
 0.000000000 0.000000000 0.000000000 0.000000000 0.016081425 0.005599494 -0.003932763 0.011294669
 0.005431274 -0.011054079 0.016081425 0.005599494 0.000000000 0.000000000 0.000000000 0.000000000
 -0.015738871 -0.007733084 -0.003932763 0.011294669 0.000000000 0.000000000 0.000000000 0.000000000
17.000000 0.000000000 0.000000000 0.000000000 0.000000000 -0.002279716 -0.011981383 -0.017162140 0.003265466
 0.000000000 0.000000000 0.000000000 0.000000000 0.016107065 -0.005324322 0.003717062 0.011244805
 -0.002279716 -0.011981383 0.016107065 -0.005324322 0.000000000 0.000000000 0.000000000 0.000000000
 -0.017162140 0.003265466 0.003717062 0.011244805 0.000000000 0.000000000 0.000000000 0.000000000
17.050000 0.000000000 0.000000000 0.000000000 0.000000000 -0.008934575 -0.008126365 -0.011710616 0.012875298
 0.000000000 0.000000000 0.000000000 0.000000000 0.009504069 -0.013974862 0.009697598 0.006595173
 -0.008934575 -0.008126365 0.009504069 -0.013974862 0.000000000 0.000000000 0.000000000 0.000000000
 -0.011710616 0.012875298 0.009697598 0.006595173 0.000000000 0.000000000 0.000000000 0.000000000
17.100000 0.000000000 0.000000000 0.000000000 0.000000000 -0.011907511 -0.001114890 -0.001616366 0.017263498
 0.000000000 0.000000000 0.000000000 0.000000000 -0.000960400 -0.016809476 0.011594349 -0.000662436
 -0.011907511 -0.001114890 -0.000960400 -0.016809476 0.000000000 0.000000000 0.000000000 0.000000000
 -0.001616366 0.017263498 0.011594349 -0.000662436 0.000000000 0.000000000 0.000000000 0.000000000
17.150000 0.000000000 0.000000000 0.000000000 0.000000000 -0.010087953 0.006203615 0.009048628 0.014714345
 0.000000000 0.000000000 0.000000000 0.000000000 -0.010951091 -0.012705494 0.008710713 -0.007507917
 -0.010087953 0.006203615 -0.010951091 -0.012705494 0.000000000 0.000000000 0.000000000 0.000000000
 0.009048628 0.014714345 0.008710713 -0.007507917 0.000000000 0.000000000 0.000000000 0.000000000
17.200000 0.000000000 0.000000000 0.000000000 0.000000000 -0.004292687 0.010913104 0.016014818 0.006299454
 0.000000000 0.000000000 0.000000000 0.000000000 -0.016360405 -0.003403886 0.002319537 -0.011148600
 -0.004292687 0.010913104 -0.016360405 -0.003403886 0.000000000 0.000000000 0.000000000 0.000000000
 0.016014818 0.006299454 0.002319537 -0.011148600 0.000000000 0.000000000 0.000000000 0.000000000
17.250000 0.000000000 0.000000000 0.000000000 0.000000000 0.003096518 0.011191802 0.016524010 -0.004571818
 0.000000000 0.000000000 0.000000000 0.000000000 -0.014996861 0.007228748 -0.004896071 -0.010157456
 0.003096518 0.011191802 -0.014996861 0.007228748 0.000000000 0.000000000 0.000000000 0.000000000
 0.016524010 -0.004571818 -0.004896071 -0.010157456 0.000000000 0.000000000 0.000000000 0.000000000
17.300000 0.000000000 0.000000000 0.000000000 0.000000000 0.009110544 0.007015289 0.010420982 -0.013533415
 0.000000000 0.000000000 0.000000000 0.000000000 -0.007472364 0.014807213 -0.009968051 -0.005030312
 0.009110544 0.007015289 -0.007472364 0.014807213 0.000000000 0.000000000 0.000000000 0.000000000
 0.010420982 -0.013533415 -0.009968051 -0.005030312 0.000000000 0.000000000 0.000000000 0.000000000
17.350000 0.000000000 0.000000000 0.000000000 0.000000000 0.011385041 0.000131108 0.000195950 -0.017015763
 0.000000000 0.000000000 0.000000000 0.000000000 0.003070697 0.016235990 -0.010863304 0.002054566
 0.011385041 0.000131108 0.003070697 0.016235990 0.000000000 0.000000000 0.000000000 0.000000000
 0.000195950 -0.017015763 -0.010863304 0.002054566 0.000000000 0.000000000 0.000000000 0.000000000
17.400000 0.000000000 0.000000000 0.000000000 0.000000000 0.009088743 -0.006670745 -0.010031160 -0.013667235
 0.000000000 0.000000000 0.000000000 0.000000000 0.012271482 0.010973218 -0.007297216 0.008160564
 0.009088743 -0.006670745 0.012271482 0.010973218 0.000000000 0.000000000 0.000000000 0.000000000
 -0.010031160 -0.013667235 -0.007297216 0.008160564 0.000000000 0.000000000 0.000000000 0.000000000
17.450000 0.000000000 0.000000000 0.000000000 0.000000000 0.003224009 -0.010687582 -0.016170466 -0.004877973
 0.000000000 0.000000000 0.000000000 0.000000000 0.016354156 0.001234437 -0.000815879 0.010808988
 0.003224009 -0.010687582 0.016354156 0.001234437 0.000000000 0.000000000 0.000000000 0.000000000
 -0.016170466 -0.004877973 -0.000815879 0.010808988 0.000000000 0.000000000 0.000000000 0.000000000
17.500000 0.000000000 0.000000000 0.000000000 0.000000000 -0.003807644 -0.010376943 -0.015797386 0.005796584
 0.000000000 0.000000000 0.000000000 0.000000000 0.013677073 -0.008939713 0.005872294 0.008984158
 -0.003807644 -0.010376943 0.013677073 -0.008939713 0.000000000 0.000000000 0.000000000 0.000000000
 -0.015797386 0.005796584 0.005872294 0.008984158 0.000000000 0.000000000 0.000000000 0.000000000
17.550000 0.000000000 0.000000000 0.000000000 0.000000000 -0.009187825 -0.005947140 -0.009109683 0.014073683
 0.000000000 0.000000000 0.000000000 0.000000000 0.005392210 -0.015359698 0.010027383 0.003520236
 -0.009187825 -0.005947140 0.005392210 -0.015359698 0.000000000 0.000000000 0.000000000 0.000000000
 -0.009109683 0.014073683 0.010027383 0.003520236 0.000000000 0.000000000 0.000000000 0.000000000
17.600000 0.000000000 0.000000000 0.000000000 0.000000000 -0.010810033 0.000759926 0.001171258 0.016661266
 0.000000000 0.000000000 0.000000000 0.000000000 -0.005049748 -0.015411958 0.009999467 -0.003276338
 -0.010810033 0.000759926 -0.005049748 -0.015411958 0.000000000 0.000000000 0.000000000 0.000000000
 0.001171258 0.016661266 0.009999467 -0.003276338 0.000000000 0.000000000 0.000000000 0.000000000
17.650000 0.000000000 0.000000000 0.000000000 0.000000000 -0.008103192 0.007033182 0.010907508 0.012566948
 0.000000000 0.000000000 0.000000000 0.000000000 -0.013336361 -0.009122425 0.005882157 -0.008599311
 -0.008103192 0.007033182 -0.013336361 -0.009122425 0.000000000 0.000000000 0.000000000 0.000000000
 0.010907508 0.012566948 0.005882157 -0.008599311 0.000000000 0.000000000 0.000000000 0.000000000
17.700000 0.000000000 0.000000000 0.000000000 0.000000000 -0.002228495 0.010387339 0.016209798 0.003477642
 0.000000000 0.000000000 0.000000000 0.000000000 -0.016074158 0.000873898 -0.000559999 -0.010300420
 -0.002228495 0.010387339 -0.016074158 0.000873898 0.000000000 0.000000000 0.000000000 0.000000000
 0.016209798 0.003477642 -0.000559999 -0.010300420 0.000000000 0.000000000 0.000000000 0.000000000
17.750000 0.000000000 0.000000000 0.000000000 0.000000000 0.004416362 0.009546524 0.014990813 -0.006934971
 0.000000000 0.000000000 0.000000000 0.000000000 -0.012177942 0.010436538 -0.006646248 -0.007755217
 0.004416362 0.009546524 -0.012177942 0.010436538 0.000000000 0.000000000 0.000000000 0.000000000
 0.014990813 -0.006934971 -0.006646248 -0.007755217 0.000000000 0.000000000 0.000000000 0.000000000
17.800000 0.000000000 0.000000000 0.000000000 0.000000000 0.009174789 0.004927674 0.007786381 -0.014497390
 0.000000000 0.000000000 0.000000000 0.000000000 -0.003300029 0.015634282 -0.009894280 -0.002088450
 0.009174789 0.004927674 -0.003300029 0.015634282 0.000000000 0.000000000 0.000000000 0.000000000
 0.007786381 -0.014497390 -0.009894280 -0.002088450 0.000000000 0.000000000 0.000000000 0.000000000
17.850000 0.000000000 0.000000000 0.000000000 0.000000000 0.010192543 -0.001558636 -0.002478332 -0.016206804
 0.000000000 0.000000000 0.000000000 0.000000000 0.006869952 0.014360988 -0.009031700 0.004320548
 0.010192543 -0.001558636 0.006869952 0.014360988 0.000000000 0.000000000 0.000000000 0.000000000
 -0.002478332 -0.016206804 -0.009031700 0.004320548 0.000000000 0.000000000 0.000000000 0.000000000
17.900000 0.000000000 0.000000000 0.000000000 0.000000000 0.007139013 -0.007297245 -0.011676219 -0.011423034
 0.000000000 0.000000000 0.000000000 0.000000000 0.014138205 0.007188488 -0.004492563 0.008835904
 0.007139013 -0.007297245 0.014138205 0.007188488 0.000000000 0.000000000 0.000000000 0.000000000
 -0.011676219 -0.011423034 -0.004492563 0.008835904 0.000000000 0.000000000 0.000000000 0.000000000
17.950000 0.000000000 0.000000000 0.000000000 0.000000000 0.001308495 -0.010021969 -0.016137357 -0.002106936
 0.000000000 0.000000000 0.000000000 0.000000000 0.015535884 -0.002888602 0.001793942 0.009648430
 0.001308495 -0.010021969 0.015535884 -0.002888602 0.000000000 0.000000000 0.000000000 0.000000000
 -0.016137357 -0.002106936 0.001793942 0.009648430 0.000000000 0.000000000 0.000000000 0.000000000
18.000000 0.000000000 0.000000000 0.000000000 0.000000000 -0.004926520 -0.008709545 -0.014112971 0.007982948
 0.000000000 0.000000000 0.000000000 0.000000000 0.010531385 -0.011702888 0.007222209 0.006499238
 -0.004926520 -0.008709545 0.010531385 -0.011702888 0.000000000 0.000000000 0.000000000 0.000000000
 -0.014112971 0.007982948 0.007222209 0.006499238 0.000000000 0.000000000 0.000000000 0.000000000
18.050000 0.000000000 0.000000000 0.000000000 0.000000000 -0.009079841 -0.003961729 -0.006460398 0.014806510
 0.000000000 0.000000000 0.000000000 0.000000000 0.001230943 -0.015637379 0.009589357 0.000754855
 -0.009079841 -0.003961729 0.001230943 -0.015637379 0.000000000 0.000000000 0.000000000 0.000000000
 -0.006460398 0.014806510 0.009589357 0.000754855 0.000000000 0.000000000 0.000000000 0.000000000
18.100000 0.000000000 0.000000000 0.000000000 0.000000000 -0.009542109 0.002266187 0.003719030 0.015659513
 0.000000000 0.000000000 0.000000000 0.000000000 -0.008507429 -0.013109415 0.007988209 -0.005183993
 -0.009542109 0.002266187 -0.008507429 -0.013109415 0.000000000 0.000000000 0.000000000 0.000000000
 0.003719030 0.015659513 0.007988209 -0.005183993 0.000000000 0.000000000 0.000000000 0.000000000
18.150000 0.000000000 0.000000000 0.000000000 0.000000000 -0.006203068 0.007469536 0.012336585 0.010244904
 0.000000000 0.000000000 0.000000000 0.000000000 -0.014674084 -0.005206683 0.003152534 -0.008884841
 -0.006203068 0.007469536 -0.014674084 -0.005206683 0.000000000 0.000000000 0.000000000 0.000000000
 0.012336585 0.010244904 0.003152534 -0.008884841 0.000000000 0.000000000 0.000000000 0.000000000
18.200000 0.000000000 0.000000000 0.000000000 0.000000000 -0.000465516 0.009600789 0.015958200 0.000773770
 0.000000000 0.000000000 0.000000000 0.000000000 -0.014758378 0.004780016 -0.002875758 -0.008878951
 -0.000465516 0.009600789 -0.014758378 0.004780016 0.000000000 0.000000000 0.000000000 0.000000000
 0.015958200 0.000773770 -0.002875758 -0.008878951 0.000000000 0.000000000 0.000000000 0.000000000
18.250000 0.000000000 0.000000000 0.000000000 0.000000000 0.005342468 0.007874283 0.013172615 -0.008937230
 0.000000000 0.000000000 0.000000000 0.000000000 -0.008770416 0.012726849 -0.007607814 -0.005242751
 0.005342468 0.007874283 -0.008770416 0.012726849 0.000000000 0.000000000 0.000000000 0.000000000
 0.013172615 -0.008937230 -0.007607814 -0.005242751 0.000000000 0.000000000 0.000000000 0.000000000
18.300000 0.000000000 0.000000000 0.000000000 0.000000000 0.008911354 0.003053275 0.005140666 -0.015003658
 0.000000000 0.000000000 0.000000000 0.000000000 0.000781735 0.015379561 -0.009134620 0.000464308
 0.008911354 0.003053275 0.000781735 0.015379561 0.000000000 0.000000000 0.000000000 0.000000000
 0.005140666 -0.015003658 -0.009134620 0.000464308 0.000000000 0.000000000 0.000000000 0.000000000
18.350000 0.000000000 0.000000000 0.000000000 0.000000000 0.008867727 -0.002884422 -0.004887799 -0.015026813
 0.000000000 0.000000000 0.000000000 0.000000000 0.009942247 0.011685768 -0.006896087 0.005867188
 0.008867727 -0.002884422 0.009942247 0.011685768 0.000000000 0.000000000 0.000000000 0.000000000
 -0.004887799 -0.015026813 -0.006896087 0.005867188 0.000000000 0.000000000 0.000000000 0.000000000
18.400000 0.000000000 0.000000000 0.000000000 0.000000000 0.005301389 -0.007556868 -0.012888615 -0.009041783
 0.000000000 0.000000000 0.000000000 0.000000000 0.014945518 0.003211636 -0.001883050 0.008762874
 0.005301389 -0.007556868 0.014945518 0.003211636 0.000000000 0.000000000 0.000000000 0.000000000
 -0.012888615 -0.009041783 -0.001883050 0.008762874 0.000000000 0.000000000 0.000000000 0.000000000
18.450000 0.000000000 0.000000000 0.000000000 0.000000000 -0.000299720 -0.009132786 -0.015677848 0.000514516
 0.000000000 0.000000000 0.000000000 0.000000000 0.013763808 -0.006521688 0.003799066 0.008017804
 -0.000299720 -0.009132786 0.013763808 -0.006521688 0.000000000 0.000000000 0.000000000 0.000000000
 -0.015677848 0.000514516 0.003799066 0.008017804 0.000000000 0.000000000 0.000000000 0.000000000
18.500000 0.000000000 0.000000000 0.000000000 0.000000000 -0.005668987 -0.007048289 -0.012178524 0.009795270
 0.000000000 0.000000000 0.000000000 0.000000000 0.006928579 -0.013500935 0.007813630 0.004009897
 -0.005668987 -0.007048289 0.006928579 -0.013500935 0.000000000 0.000000000 0.000000000 0.000000000
 -0.012178524 0.009795270 0.007813630 0.004009897 0.000000000 0.000000000 0.000000000 0.000000000
18.550000 0.000000000 0.000000000 0.000000000 0.000000000 -0.008677612 -0.002205447 -0.003835699 0.015092048
 0.000000000 0.000000000 0.000000000 0.000000000 -0.002706956 -0.014875222 0.008552941 -0.001556443
 -0.008677612 -0.002205447 -0.002706956 -0.014875222 0.000000000 0.000000000 0.000000000 0.000000000
 -0.003835699 0.015092048 0.008552941 -0.001556443 0.000000000 0.000000000 0.000000000 0.000000000
18.600000 0.000000000 0.000000000 0.000000000 0.000000000 -0.008177828 0.003415788 0.005979781 0.014316350
 0.000000000 0.000000000 0.000000000 0.000000000 -0.011158577 -0.010120230 0.005780908 -0.006374035
 -0.008177828 0.003415788 -0.011158577 -0.010120230 0.000000000 0.000000000 0.000000000 0.000000000
 0.005979781 0.014316350 0.005780908 -0.006374035 0.000000000 0.000000000 0.000000000 0.000000000
18.650000 0.000000000 0.000000000 0.000000000 0.000000000 -0.004439197 0.007566202 0.013333007 0.007822662
 0.000000000 0.000000000 0.000000000 0.000000000 -0.014958268 -0.001236792 0.000701853 -0.008488503
 -0.004439197 0.007566202 -0.014958268 -0.001236792 0.000000000 0.000000000 0.000000000 0.000000000
 0.013333007 0.007822662 0.000701853 -0.008488503 0.000000000 0.000000000 0.000000000 0.000000000
18.700000 0.000000000 0.000000000 0.000000000 0.000000000 0.000987221 0.008626584 0.015302226 -0.001751177
 0.000000000 0.000000000 0.000000000 0.000000000 -0.012576983 0.008090666 -0.004561089 -0.007090237
 0.000987221 0.008626584 -0.012576983 0.008090666 0.000000000 0.000000000 0.000000000 0.000000000
 0.015302226 -0.001751177 -0.004561089 -0.007090237 0.000000000 0.000000000 0.000000000 0.000000000
18.750000 0.000000000 0.000000000 0.000000000 0.000000000 0.005911218 0.006238391 0.011139449 -0.010555239
 0.000000000 0.000000000 0.000000000 0.000000000 -0.005039386 0.014022023 -0.007852710 -0.002822192
 0.005911218 0.006238391 -0.005039386 0.014022023 0.000000000 0.000000000 0.000000000 0.000000000
 0.011139449 -0.010555239 -0.007852710 -0.002822192 0.000000000 0.000000000 0.000000000 0.000000000
18.800000 0.000000000 0.000000000 0.000000000 0.000000000 0.008386754 0.001420592 0.002553558 -0.015075452
 0.000000000 0.000000000 0.000000000 0.000000000 0.004516334 0.014142191 -0.007867563 0.002512521
 0.008386754 0.001420592 0.004516334 0.014142191 0.000000000 0.000000000 0.000000000 0.000000000
 0.002553558 -0.015075452 -0.007867563 0.002512521 0.000000000 0.000000000 0.000000000 0.000000000
18.850000 0.000000000 0.000000000 0.000000000 0.000000000 0.007480258 -0.003863274 -0.006990809 -0.013535943
 0.000000000 0.000000000 0.000000000 0.000000000 0.012144774 0.008444085 -0.004666386 0.006711468
 0.007480258 -0.003863274 0.012144774 0.008444085 0.000000000 0.000000000 0.000000000 0.000000000
 -0.006990809 -0.013535943 -0.004666386 0.006711468 0.000000000 0.000000000 0.000000000 0.000000000
18.900000 0.000000000 0.000000000 0.000000000 0.000000000 0.003620929 -0.007504578 -0.013671116 -0.006596259
 0.000000000 0.000000000 0.000000000 0.000000000 0.014722077 -0.000686065 0.000376606 0.008081488
 0.003620929 -0.007504578 0.014722077 -0.000686065 0.000000000 0.000000000 0.000000000 0.000000000
 -0.013671116 -0.006596259 0.000376606 0.008081488 0.000000000 0.000000000 0.000000000 0.000000000
18.950000 0.000000000 0.000000000 0.000000000 0.000000000 -0.001597665 -0.008090406 -0.014837622 0.002930082
 0.000000000 0.000000000 0.000000000 0.000000000 0.011224854 -0.009467721 0.005162398 0.006120497
 -0.001597665 -0.008090406 0.011224854 -0.009467721 0.000000000 0.000000000 0.000000000 0.000000000
 -0.014837622 0.002930082 0.005162398 0.006120497 0.000000000 0.000000000 0.000000000 0.000000000
19.000000 0.000000000 0.000000000 0.000000000 0.000000000 -0.006074596 -0.005450700 -0.010064058 0.011216007
 0.000000000 0.000000000 0.000000000 0.000000000 0.003135789 -0.014291234 0.007740140 0.001698345
 -0.006074596 -0.005450700 0.003135789 -0.014291234 0.000000000 0.000000000 0.000000000 0.000000000
 -0.010064058 0.011216007 0.007740140 0.001698345 0.000000000 0.000000000 0.000000000 0.000000000
19.050000 0.000000000 0.000000000 0.000000000 0.000000000 -0.008046727 -0.000700315 -0.001301823 0.014958150
 0.000000000 0.000000000 0.000000000 0.000000000 -0.006184496 -0.013201307 0.007101634 -0.003326946
 -0.008046727 -0.000700315 -0.006184496 -0.013201307 0.000000000 0.000000000 0.000000000 0.000000000
 -0.001301823 0.014958150 0.007101634 -0.003326946 0.000000000 0.000000000 0.000000000 0.000000000
19.100000 0.000000000 0.000000000 0.000000000 0.000000000 -0.006782270 0.004230341 0.007917403 0.012693531
 0.000000000 0.000000000 0.000000000 0.000000000 -0.012893398 -0.006689177 0.003574089 -0.006889061
 -0.006782270 0.004230341 -0.012893398 -0.006689177 0.000000000 0.000000000 0.000000000 0.000000000
 0.007917403 0.012693531 0.003574089 -0.006889061 0.000000000 0.000000000 0.000000000 0.000000000
19.150000 0.000000000 0.000000000 0.000000000 0.000000000 -0.002850268 0.007379060 0.013904913 0.005370973
 0.000000000 0.000000000 0.000000000 0.000000000 -0.014250346 0.002527251 -0.001341162 -0.007562374
 -0.002850268 0.007379060 -0.014250346 0.002527251 0.000000000 0.000000000 0.000000000 0.000000000
 0.013904913 0.005370973 -0.001341162 -0.007562374 0.000000000 0.000000000 0.000000000 0.000000000
19.200000 0.000000000 0.000000000 0.000000000 0.000000000 0.002132342 0.007532042 0.014290624 -0.004045716
 0.000000000 0.000000000 0.000000000 0.000000000 -0.009735993 0.010637503 -0.005606621 -0.005131470
 0.002132342 0.007532042 -0.009735993 0.010637503 0.000000000 0.000000000 0.000000000 0.000000000
 0.014290624 -0.004045716 -0.005606621 -0.005131470 0.000000000 0.000000000 0.000000000 0.000000000
19.250000 0.000000000 0.000000000 0.000000000 0.000000000 0.006164785 0.004690619 0.008960897 -0.011777122
 0.000000000 0.000000000 0.000000000 0.000000000 -0.001249675 0.014313736 -0.007492586 -0.000654148
 0.006164785 0.004690619 -0.001249675 0.014313736 0.000000000 0.000000000 0.000000000 0.000000000
 0.008960897 -0.011777122 -0.007492586 -0.000654148 0.000000000 0.000000000 0.000000000 0.000000000
19.300000 0.000000000 0.000000000 0.000000000 0.000000000 0.007665239 0.000045523 0.000087568 -0.014744888
 0.000000000 0.000000000 0.000000000 0.000000000 0.007689361 0.012075969 -0.006277782 0.003997371
 0.007665239 0.000045523 0.007689361 0.012075969 0.000000000 0.000000000 0.000000000 0.000000000
 0.000087568 -0.014744888 -0.006277782 0.003997371 0.000000000 0.000000000 0.000000000 0.000000000
19.350000 0.000000000 0.000000000 0.000000000 0.000000000 0.006090512 -0.004520865 -0.008756766 -0.011797119
 0.000000000 0.000000000 0.000000000 0.000000000 0.013401164 0.004887378 -0.002523212 0.006918634
 0.006090512 -0.004520865 0.013401164 0.004887378 0.000000000 0.000000000 0.000000000 0.000000000
 -0.008756766 -0.011797119 -0.002523212 0.006918634 0.000000000 0.000000000 0.000000000 0.000000000
19.400000 0.000000000 0.000000000 0.000000000 0.000000000 0.002130175 -0.007196680 -0.014036954 -0.004154856
 0.000000000 0.000000000 0.000000000 0.000000000 0.013559781 -0.004259579 0.002183866 0.006952036
 0.002130175 -0.007196680 0.013559781 -0.004259579 0.000000000 0.000000000 0.000000000 0.000000000
 -0.014036954 -0.004154856 0.002183866 0.006952036 0.000000000 0.000000000 0.000000000 0.000000000
19.450000 0.000000000 0.000000000 0.000000000 0.000000000 -0.002593098 -0.006958827 -0.013668080 0.005093196
 0.000000000 0.000000000 0.000000000 0.000000000 0.008140077 -0.011588633 0.005900118 0.004144356
 -0.002593098 -0.006958827 0.008140077 -0.011588633 0.000000000 0.000000000 0.000000000 0.000000000
 -0.013668080 0.005093196 0.005900118 0.004144356 0.000000000 0.000000000 0.000000000 0.000000000
19.500000 0.000000000 0.000000000 0.000000000 0.000000000 -0.006187618 -0.003962862 -0.007838334 0.012238785
 0.000000000 0.000000000 0.000000000 0.000000000 -0.000588601 -0.014098505 0.007127845 -0.000297582
 -0.006187618 -0.003962862 -0.000588601 -0.014098505 0.000000000 0.000000000 0.000000000 0.000000000
 -0.007838334 0.012238785 0.007127845 -0.000297582 0.000000000 0.000000000 0.000000000 0.000000000
19.550000 0.000000000 0.000000000 0.000000000 0.000000000 -0.007249721 0.000543527 0.001082660 0.014440826
 0.000000000 0.000000000 0.000000000 0.000000000 -0.009012364 -0.010791661 0.005417732 -0.004524473
 -0.007249721 0.000543527 -0.009012364 -0.010791661 0.000000000 0.000000000 0.000000000 0.000000000
 0.001082660 0.014440826 0.005417732 -0.004524473 0.000000000 0.000000000 0.000000000 0.000000000
19.600000 0.000000000 0.000000000 0.000000000 0.000000000 -0.005411023 0.004739070 0.009506766 0.010854732
 0.000000000 0.000000000 0.000000000 0.000000000 -0.013668827 -0.003070081 0.001530418 -0.006813835
 -0.005411023 0.004739070 -0.013668827 -0.003070081 0.000000000 0.000000000 0.000000000 0.000000000
 0.009506766 0.010854732 0.001530418 -0.006813835 0.000000000 0.000000000 0.000000000 0.000000000
19.650000 0.000000000 0.000000000 0.000000000 0.000000000 -0.001462916 0.006964385 0.014070336 0.002955569
 0.000000000 0.000000000 0.000000000 0.000000000 -0.012669995 0.005858684 -0.002899869 -0.006271259
 -0.001462916 0.006964385 -0.012669995 0.005858684 0.000000000 0.000000000 0.000000000 0.000000000
 0.014070336 0.002955569 -0.002899869 -0.006271259 0.000000000 0.000000000 0.000000000 0.000000000
19.700000 0.000000000 0.000000000 0.000000000 0.000000000 0.002982276 0.006377618 0.012977036 -0.006068270
 0.000000000 0.000000000 0.000000000 0.000000000 -0.006467367 0.012313726 -0.006051631 -0.003178414
 0.002982276 0.006377618 -0.006467367 0.012313726 0.000000000 0.000000000 0.000000000 0.000000000
 0.012977036 -0.006068270 -0.006051631 -0.003178414 0.000000000 0.000000000 0.000000000 0.000000000
19.750000 0.000000000 0.000000000 0.000000000 0.000000000 0.006149041 0.003271464 0.006704525 -0.012601820
 0.000000000 0.000000000 0.000000000 0.000000000 0.002350638 0.013658031 -0.006664418 0.001146990
 0.006149041 0.003271464 0.002350638 0.013658031 0.000000000 0.000000000 0.000000000 0.000000000
 0.006704525 -0.012601820 -0.006664418 0.001146990 0.000000000 0.000000000 0.000000000 0.000000000
19.800000 0.000000000 0.000000000 0.000000000 0.000000000 0.006807288 -0.001067181 -0.002202857 -0.014051497
 0.000000000 0.000000000 0.000000000 0.000000000 0.010138617 0.009375458 -0.004541967 0.004911682
 0.006807288 -0.001067181 0.010138617 0.009375458 0.000000000 0.000000000 0.000000000 0.000000000
 -0.002202857 -0.014051497 -0.004541967 0.004911682 0.000000000 0.000000000 0.000000000 0.000000000
19.850000 0.000000000 0.000000000 0.000000000 0.000000000 0.004749238 -0.004889472 -0.010165928 -0.009874362
 0.000000000 0.000000000 0.000000000 0.000000000 0.013701016 0.001267713 -0.000609727 0.006589731
 0.004749238 -0.004889472 0.013701016 0.001267713 0.000000000 0.000000000 0.000000000 0.000000000
 -0.010165928 -0.009874362 -0.000609727 0.006589731 0.000000000 0.000000000 0.000000000 0.000000000
19.900000 0.000000000 0.000000000 0.000000000 0.000000000 0.000850105 -0.006688993 -0.014008662 -0.001780362
 0.000000000 0.000000000 0.000000000 0.000000000 0.011603075 -0.007303311 0.003487257 0.005540350
 0.000850105 -0.006688993 0.011603075 -0.007303311 0.000000000 0.000000000 0.000000000 0.000000000
 -0.014008662 -0.001780362 0.003487257 0.005540350 0.000000000 0.000000000 0.000000000 0.000000000
19.950000 0.000000000 0.000000000 0.000000000 0.000000000 -0.003302664 -0.005794778 -0.012224693 0.006967317
 0.000000000 0.000000000 0.000000000 0.000000000 0.004748204 -0.012809353 0.006071921 0.002250755
 -0.003302664 -0.005794778 0.004748204 -0.012809353 0.000000000 0.000000000 0.000000000 0.000000000
 -0.012224693 0.006967317 0.006071921 0.002250755 0.000000000 0.000000000 0.000000000 0.000000000
20.000000 0.000000000 0.000000000 0.000000000 0.000000000 -0.006055056 -0.002619805 -0.005567370 0.012867648
 0.000000000 0.000000000 0.000000000 0.000000000 -0.004010369 -0.013007982 0.006121092 -0.001887137
 -0.006055056 -0.002619805 -0.004010369 -0.013007982 0.000000000 0.000000000 0.000000000 0.000000000
 -0.005567370 0.012867648 0.006121092 -0.001887137 0.000000000 0.000000000 0.000000000 0.000000000
20.050000 0.000000000 0.000000000 0.000000000 0.000000000 -0.006344712 0.001526338 0.003267582 0.013582752
 0.000000000 0.000000000 0.000000000 0.000000000 -0.011056997 -0.007855538 0.003669442 -0.005164893
 -0.006344712 0.001526338 -0.011056997 -0.007855538 0.000000000 0.000000000 0.000000000 0.000000000
 0.003267582 0.013582752 0.003669442 -0.005164893 0.000000000 0.000000000 0.000000000 0.000000000
20.100000 0.000000000 0.000000000 0.000000000 0.000000000 -0.004109984 0.004976822 0.010733415 0.008863924
 0.000000000 0.000000000 0.000000000 0.000000000 -0.013506002 0.000490710 -0.000227530 -0.006262402
 -0.004109984 0.004976822 -0.013506002 0.000490710 0.000000000 0.000000000 0.000000000 0.000000000
 0.010733415 0.008863924 -0.000227530 -0.006262402 0.000000000 0.000000000 0.000000000 0.000000000
20.150000 0.000000000 0.000000000 0.000000000 0.000000000 -0.000292734 0.006377148 0.013855995 0.000636040
 0.000000000 0.000000000 0.000000000 0.000000000 -0.010383138 0.008575528 -0.003946841 -0.004778784
 -0.000292734 0.006377148 -0.010383138 0.008575528 0.000000000 0.000000000 0.000000000 0.000000000
 0.013855995 0.000636040 -0.003946841 -0.004778784 0.000000000 0.000000000 0.000000000 0.000000000
20.200000 0.000000000 0.000000000 0.000000000 0.000000000 0.003557436 0.005216165 0.011418356 -0.007787344
 0.000000000 0.000000000 0.000000000 0.000000000 -0.003012519 0.013075945 -0.005973389 -0.001376187
 0.003557436 0.005216165 -0.003012519 0.013075945 0.000000000 0.000000000 0.000000000 0.000000000
 0.011418356 -0.007787344 -0.005973389 -0.001376187 0.000000000 0.000000000 0.000000000 0.000000000
20.250000 0.000000000 0.000000000 0.000000000 0.000000000 0.005911669 0.002010634 0.004434475 -0.013038251
 0.000000000 0.000000000 0.000000000 0.000000000 0.005544389 0.012166827 -0.005516557 0.002513880
 0.005911669 0.002010634 0.005544389 0.012166827 0.000000000 0.000000000 0.000000000 0.000000000
 0.004434475 -0.013038251 -0.005516557 0.002513880 0.000000000 0.000000000 0.000000000 0.000000000
20.300000 0.000000000 0.000000000 0.000000000 0.000000000 0.005868393 -0.001922404 -0.004271959 -0.013040717
 0.000000000 0.000000000 0.000000000 0.000000000 0.011760184 0.006260684 -0.002817341 0.005292146
 0.005868393 -0.001922404 0.011760184 0.006260684 0.000000000 0.000000000 0.000000000 0.000000000
 -0.004271959 -0.013040717 -0.002817341 0.005292146 0.000000000 0.000000000 0.000000000 0.000000000
20.350000 0.000000000 0.000000000 0.000000000 0.000000000 0.003497495 -0.005006050 -0.011209005 -0.007831212
 0.000000000 0.000000000 0.000000000 0.000000000 0.013095432 -0.002177994 0.000972713 0.005848546
 0.003497495 -0.005006050 0.013095432 -0.002177994 0.000000000 0.000000000 0.000000000 0.000000000
 -0.011209005 -0.007831212 0.000972713 0.005848546 0.000000000 0.000000000 0.000000000 0.000000000
20.400000 0.000000000 0.000000000 0.000000000 0.000000000 -0.000208783 -0.006035281 -0.013616818 0.000471058
 0.000000000 0.000000000 0.000000000 0.000000000 0.009035867 -0.009660885 0.004281922 0.004004900
 -0.000208783 -0.006035281 0.009035867 -0.009660885 0.000000000 0.000000000 0.000000000 0.000000000
 -0.013616818 0.000471058 0.004281922 0.004004900 0.000000000 0.000000000 0.000000000 0.000000000
20.450000 0.000000000 0.000000000 0.000000000 0.000000000 -0.003750101 -0.004647120 -0.010565386 0.008525982
 0.000000000 0.000000000 0.000000000 0.000000000 0.001289372 -0.013117632 0.005769710 0.000567122
 -0.003750101 -0.004647120 0.001289372 -0.013117632 0.000000000 0.000000000 0.000000000 0.000000000
 -0.010565386 0.008525982 0.005769710 0.000567122 0.000000000 0.000000000 0.000000000 0.000000000
20.500000 0.000000000 0.000000000 0.000000000 0.000000000 -0.005724849 -0.001446090 -0.003313120 0.013116140
 0.000000000 0.000000000 0.000000000 0.000000000 -0.006932220 -0.011155435 0.004869053 -0.003025731
 -0.005724849 -0.001446090 -0.006932220 -0.011155435 0.000000000 0.000000000 0.000000000 0.000000000
 -0.003313120 0.013116140 0.004869053 -0.003025731 0.000000000 0.000000000 0.000000000 0.000000000
20.550000 0.000000000 0.000000000 0.000000000 0.000000000 -0.005384334 0.002257244 0.005211691 0.012431745
 0.000000000 0.000000000 0.000000000 0.000000000 -0.012244628 -0.004619800 0.002000890 -0.005303291
 -0.005384334 0.002257244 -0.012244628 -0.004619800 0.000000000 0.000000000 0.000000000 0.000000000
 0.005211691 0.012431745 0.002000890 -0.005303291 0.000000000 0.000000000 0.000000000 0.000000000
20.600000 0.000000000 0.000000000 0.000000000 0.000000000 -0.002915415 0.004982215 0.011593072 0.006783855
 0.000000000 0.000000000 0.000000000 0.000000000 -0.012484009 0.003769132 -0.001619814 -0.005365102
 -0.002915415 0.004982215 -0.012484009 0.003769132 0.000000000 0.000000000 0.000000000 0.000000000
 0.011593072 0.006783855 -0.001619814 -0.005365102 0.000000000 0.000000000 0.000000000 0.000000000
20.650000 0.000000000 0.000000000 0.000000000 0.000000000 0.000654576 0.005669574 0.013295989 -0.001535077
 0.000000000 0.000000000 0.000000000 0.000000000 -0.007588034 0.010548516 -0.004498018 -0.003235632
 0.000654576 0.005669574 -0.007588034 0.010548516 0.000000000 0.000000000 0.000000000 0.000000000
 0.013295989 -0.001535077 -0.004498018 -0.003235632 0.000000000 0.000000000 0.000000000 0.000000000
20.700000 0.000000000 0.000000000 0.000000000 0.000000000 0.003884450 0.004092467 0.009673150 -0.009181471
 0.000000000 0.000000000 0.000000000 0.000000000 0.000393483 0.012942039 -0.005475451 0.000166473
 0.003884450 0.004092467 0.000393483 0.012942039 0.000000000 0.000000000 0.000000000 0.000000000
 0.009673150 -0.009181471 -0.005475451 0.000166473 0.000000000 0.000000000 0.000000000 0.000000000
20.750000 0.000000000 0.000000000 0.000000000 0.000000000 0.005500477 0.000927733 0.002210227 -0.013104320
 0.000000000 0.000000000 0.000000000 0.000000000 0.008156534 0.009996649 -0.004196046 0.003423667
 0.005500477 0.000927733 0.008156534 0.009996649 0.000000000 0.000000000 0.000000000 0.000000000
 0.002210227 -0.013104320 -0.004196046 0.003423667 0.000000000 0.000000000 0.000000000 0.000000000
20.800000 0.000000000 0.000000000 0.000000000 0.000000000 0.004898128 -0.002533130 -0.006083060 -0.011762367
 0.000000000 0.000000000 0.000000000 0.000000000 0.012510463 0.002961448 -0.001233217 0.005209653
 0.004898128 -0.002533130 0.012510463 0.002961448 0.000000000 0.000000000 0.000000000 0.000000000
 -0.006083060 -0.011762367 -0.001233217 0.005209653 0.000000000 0.000000000 0.000000000 0.000000000
20.850000 0.000000000 0.000000000 0.000000000 0.000000000 0.002366821 -0.004910454 -0.011886560 -0.005729277
 0.000000000 0.000000000 0.000000000 0.000000000 0.011689139 -0.005241621 0.002165365 0.004828898
 0.002366821 -0.004910454 0.011689139 -0.005241621 0.000000000 0.000000000 0.000000000 0.000000000
 -0.011886560 -0.005729277 0.002165365 0.004828898 0.000000000 0.000000000 0.000000000 0.000000000
20.900000 0.000000000 0.000000000 0.000000000 0.000000000 -0.001045272 -0.005285934 -0.012898697 0.002550666
 0.000000000 0.000000000 0.000000000 0.000000000 0.006067037 -0.011231170 0.004602575 0.002486294
 -0.001045272 -0.005285934 0.006067037 -0.011231170 0.000000000 0.000000000 0.000000000 0.000000000
 -0.012898697 0.002550666 0.004602575 0.002486294 0.000000000 0.000000000 0.000000000 0.000000000
20.950000 0.000000000 0.000000000 0.000000000 0.000000000 -0.003964504 -0.003556508 -0.008748983 0.009752652
 0.000000000 0.000000000 0.000000000 0.000000000 -0.002009989 -0.012560030 0.005105718 -0.000817071
 -0.003964504 -0.003556508 -0.002009989 -0.012560030 0.000000000 0.000000000 0.000000000 0.000000000
 -0.008748983 0.009752652 0.005105718 -0.000817071 0.000000000 0.000000000 0.000000000 0.000000000
21.000000 0.000000000 0.000000000 0.000000000 0.000000000 -0.005244307 -0.000456572 -0.001132332 0.013006251
 0.000000000 0.000000000 0.000000000 0.000000000 -0.009203308 -0.008714843 0.003513950 -0.003710906
 -0.005244307 -0.000456572 -0.009203308 -0.008714843 0.000000000 0.000000000 0.000000000 0.000000000
 -0.001132332 0.013006251 0.003513950 -0.003710906 0.000000000 0.000000000 0.000000000 0.000000000
21.050000 0.000000000 0.000000000 0.000000000 0.000000000 -0.004414936 0.002752697 0.006882929 0.011039245
 0.000000000 0.000000000 0.000000000 0.000000000 -0.012561365 -0.001313397 0.000525268 -0.005023679
 -0.004414936 0.002752697 -0.012561365 -0.001313397 0.000000000 0.000000000 0.000000000 0.000000000
 0.006882929 0.011039245 0.000525268 -0.005023679 0.000000000 0.000000000 0.000000000 0.000000000
21.100000 0.000000000 0.000000000 0.000000000 0.000000000 -0.001854228 0.004795937 0.012090952 0.004674663
 0.000000000 0.000000000 0.000000000 0.000000000 -0.010730554 0.006575727 -0.002608295 -0.004256328
 -0.001854228 0.004795937 -0.010730554 0.006575727 0.000000000 0.000000000 0.000000000 0.000000000
 0.012090952 0.004674663 -0.002608295 -0.004256328 0.000000000 0.000000000 0.000000000 0.000000000
21.150000 0.000000000 0.000000000 0.000000000 0.000000000 0.001381963 0.004889958 0.012430421 -0.003512991
 0.000000000 0.000000000 0.000000000 0.000000000 -0.004500432 0.011705195 -0.004604664 -0.001770409
 0.001381963 0.004889958 -0.004500432 0.011705195 0.000000000 0.000000000 0.000000000 0.000000000
 0.012430421 -0.003512991 -0.004604664 -0.001770409 0.000000000 0.000000000 0.000000000 0.000000000
21.200000 0.000000000 0.000000000 0.000000000 0.000000000 0.003994469 0.003043029 0.007800139 -0.010238947
 0.000000000 0.000000000 0.000000000 0.000000000 0.003536142 0.011985410 -0.004675808 0.001379538
 0.003994469 0.003043029 0.003536142 0.011985410 0.000000000 0.000000000 0.000000000 0.000000000
 0.007800139 -0.010238947 -0.004675808 0.001379538 0.000000000 0.000000000 0.000000000 0.000000000
21.250000 0.000000000 0.000000000 0.000000000 0.000000000 0.004961932 0.000033100 0.000085558 -0.012825810
 0.000000000 0.000000000 0.000000000 0.000000000 0.010061923 0.007335477 -0.002837882 0.003892664
 0.004961932 0.000033100 0.010061923 0.007335477 0.000000000 0.000000000 0.000000000 0.000000000
 0.000085558 -0.012825810 -0.002837882 0.003892664 0.000000000 0.000000000 0.000000000 0.000000000
21.300000 0.000000000 0.000000000 0.000000000 0.000000000 0.003939483 -0.002918893 -0.007608738 -0.010269131
 0.000000000 0.000000000 0.000000000 0.000000000 0.012404362 -0.000297787 0.000114238 0.004758608
 0.003939483 -0.002918893 0.012404362 -0.000297787 0.000000000 0.000000000 0.000000000 0.000000000
 -0.007608738 -0.010269131 0.000114238 0.004758608 0.000000000 0.000000000 0.000000000 0.000000000
21.350000 0.000000000 0.000000000 0.000000000 0.000000000 0.001379622 -0.004643818 -0.012208245 -0.003626921
 0.000000000 0.000000000 0.000000000 0.000000000 0.009629902 -0.007754701 0.002949762 0.003663058
 0.001379622 -0.004643818 0.009629902 -0.007754701 0.000000000 0.000000000 0.000000000 0.000000000
 -0.012208245 -0.003626921 0.002949762 0.003663058 0.000000000 0.000000000 0.000000000 0.000000000
21.400000 0.000000000 0.000000000 0.000000000 0.000000000 -0.001666154 -0.004486916 -0.011896881 0.004417741
 0.000000000 0.000000000 0.000000000 0.000000000 0.002915489 -0.011970460 0.004514667 0.001099578
 -0.001666154 -0.004486916 0.002915489 -0.011970460 0.000000000 0.000000000 0.000000000 0.000000000
 -0.011896881 0.004417741 0.004514667 0.001099578 0.000000000 0.000000000 0.000000000 0.000000000
21.450000 0.000000000 0.000000000 0.000000000 0.000000000 -0.003978685 -0.002555307 -0.006833752 0.010640344
 0.000000000 0.000000000 0.000000000 0.000000000 -0.004950299 -0.011234595 0.004200890 -0.001851038
 -0.003978685 -0.002555307 -0.004950299 -0.011234595 0.000000000 0.000000000 0.000000000 0.000000000
 -0.006833752 0.010640344 0.004200890 -0.001851038 0.000000000 0.000000000 0.000000000 0.000000000
21.500000 0.000000000 0.000000000 0.000000000 0.000000000 -0.004658745 0.000342682 0.000924405 0.012567253
 0.000000000 0.000000000 0.000000000 0.000000000 -0.010725207 -0.005884644 0.002181468 -0.003975889
 -0.004658745 0.000342682 -0.010725207 -0.005884644 0.000000000 0.000000000 0.000000000 0.000000000
 0.000924405 0.012567253 0.002181468 -0.003975889 0.000000000 0.000000000 0.000000000 0.000000000
21.550000 0.000000000 0.000000000 0.000000000 0.000000000 -0.003476044 0.003034935 0.008258496 0.009458817
 0.000000000 0.000000000 0.000000000 0.000000000 -0.012049590 0.001847125 -0.000678804 -0.004428134
 -0.003476044 0.003034935 -0.012049590 0.001847125 0.000000000 0.000000000 0.000000000 0.000000000
 0.008258496 0.009458817 -0.000678804 -0.004428134 0.000000000 0.000000000 0.000000000 0.000000000
21.600000 0.000000000 0.000000000 0.000000000 0.000000000 -0.000944468 0.004459201 0.012240916 0.002592651
 0.000000000 0.000000000 0.000000000 0.000000000 -0.008410335 0.008764927 -0.003192945 -0.003063771
 -0.000944468 0.004459201 -0.008410335 0.008764927 0.000000000 0.000000000 0.000000000 0.000000000
 0.012240916 0.002592651 -0.003192945 -0.003063771 0.000000000 0.000000000 0.000000000 0.000000000
21.650000 0.000000000 0.000000000 0.000000000 0.000000000 0.001899730 0.004081728 0.011303996 -0.005261139
 0.000000000 0.000000000 0.000000000 0.000000000 -0.001338761 0.012030225 -0.004343960 -0.000483409
 0.001899730 0.004081728 -0.001338761 0.012030225 0.000000000 0.000000000 0.000000000 0.000000000
 0.011303996 -0.005261139 -0.004343960 -0.000483409 0.000000000 0.000000000 0.000000000 0.000000000
21.700000 0.000000000 0.000000000 0.000000000 0.000000000 0.003921581 0.002096114 0.005856797 -0.010957373
 0.000000000 0.000000000 0.000000000 0.000000000 0.006233434 0.010326251 -0.003695706 0.002230911
 0.003921581 0.002096114 0.006233434 0.010326251 0.000000000 0.000000000 0.000000000 0.000000000
 0.005856797 -0.010957373 -0.003695706 0.002230911 0.000000000 0.000000000 0.000000000 0.000000000
21.750000 0.000000000 0.000000000 0.000000000 0.000000000 0.004339913 -0.000671219 -0.001892316 -0.012235173
 0.000000000 0.000000000 0.000000000 0.000000000 0.011189425 0.004388632 -0.001556683 0.003968978
 0.004339913 -0.000671219 0.011189425 0.004388632 0.000000000 0.000000000 0.000000000 0.000000000
 -0.001892316 -0.012235173 -0.001556683 0.003968978 0.000000000 0.000000000 0.000000000 0.000000000
21.800000 0.000000000 0.000000000 0.000000000 0.000000000 0.003028447 -0.003104265 -0.008830778 -0.008615095
 0.000000000 0.000000000 0.000000000 0.000000000 0.011510019 -0.003311563 0.001164107 0.004046094
 0.003028447 -0.003104265 0.011510019 -0.003311563 0.000000000 0.000000000 0.000000000 0.000000000
 -0.008830778 -0.008615095 0.001164107 0.004046094 0.000000000 0.000000000 0.000000000 0.000000000
21.850000 0.000000000 0.000000000 0.000000000 0.000000000 0.000549744 -0.004247096 -0.012191889 -0.001578119
 0.000000000 0.000000000 0.000000000 0.000000000 0.007096074 -0.009596035 0.003342820 0.002471947
 0.000549744 -0.004247096 0.007096074 -0.009596035 0.000000000 0.000000000 0.000000000 0.000000000
 -0.012191889 -0.001578119 0.003342820 0.002471947 0.000000000 0.000000000 0.000000000 0.000000000
21.900000 0.000000000 0.000000000 0.000000000 0.000000000 -0.002084909 -0.003678947 -0.010657844 0.006039943
 0.000000000 0.000000000 0.000000000 0.000000000 -0.000204312 -0.011890961 0.004104603 -0.000070526
 -0.002084909 -0.003678947 -0.000204312 -0.011890961 0.000000000 0.000000000 0.000000000 0.000000000
 -0.010657844 0.006039943 0.004104603 -0.000070526 0.000000000 0.000000000 0.000000000 0.000000000
21.950000 0.000000000 0.000000000 0.000000000 0.000000000 -0.003827637 -0.001667735 -0.004876053 0.011191084
 0.000000000 0.000000000 0.000000000 0.000000000 -0.007369350 -0.009280908 0.003174308 -0.002520506
 -0.003827637 -0.001667735 -0.007369350 -0.009280908 0.000000000 0.000000000 0.000000000 0.000000000
 -0.004876053 0.011191084 0.003174308 -0.002520506 0.000000000 0.000000000 0.000000000 0.000000000
22.000000 0.000000000 0.000000000 0.000000000 0.000000000 -0.004010348 0.000953379 0.002813403 0.011834459
 0.000000000 0.000000000 0.000000000 0.000000000 -0.011454204 -0.002873490 0.000973741 -0.003881491
 -0.004010348 0.000953379 -0.011454204 -0.002873490 0.000000000 0.000000000 0.000000000 0.000000000
 0.002813403 0.011834459 0.000973741 -0.003881491 0.000000000 0.000000000 0.000000000 0.000000000
22.050000 0.000000000 0.000000000 0.000000000 0.000000000 -0.002600066 0.003130502 0.009324704 0.007744715
 0.000000000 0.000000000 0.000000000 0.000000000 -0.010801139 0.004670277 -0.001567911 -0.003626173
 -0.002600066 0.003130502 -0.010801139 0.004670277 0.000000000 0.000000000 0.000000000 0.000000000
 0.009324704 0.007744715 -0.001567911 -0.003626173 0.000000000 0.000000000 0.000000000 0.000000000
22.100000 0.000000000 0.000000000 0.000000000 0.000000000 -0.000195963 0.004012389 0.012064500 0.000589225
 0.000000000 0.000000000 0.000000000 0.000000000 -0.005711986 0.010240938 -0.003405913 -0.001899682
 -0.000195963 0.004012389 -0.005711986 0.010240938 0.000000000 0.000000000 0.000000000 0.000000000
 0.012064500 0.000589225 -0.003405913 -0.001899682 0.000000000 0.000000000 0.000000000 0.000000000
22.150000 0.000000000 0.000000000 0.000000000 0.000000000 0.002224203 0.003282751 0.009964610 -0.006751446
 0.000000000 0.000000000 0.000000000 0.000000000 0.001689770 0.011562130 -0.003809039 0.000556679
 0.002224203 0.003282751 0.001689770 0.011562130 0.000000000 0.000000000 0.000000000 0.000000000
 0.009964610 -0.006751446 -0.003809039 0.000556679 0.000000000 0.000000000 0.000000000 0.000000000
22.200000 0.000000000 0.000000000 0.000000000 0.000000000 0.003701336 0.001271977 0.003898067 -0.011343021
 0.000000000 0.000000000 0.000000000 0.000000000 0.008344833 0.008120564 -0.002649818 0.002722999
 0.003701336 0.001271977 0.008344833 0.008120564 0.000000000 0.000000000 0.000000000 0.000000000
 0.003898067 -0.011343021 -0.002649818 0.002722999 0.000000000 0.000000000 0.000000000 0.000000000
22.250000 0.000000000 0.000000000 0.000000000 0.000000000 0.003674685 -0.001190407 -0.003683372 -0.011370258
 0.000000000 0.000000000 0.000000000 0.000000000 0.011522421 0.001364621 -0.000441024 0.003723862
 0.003674685 -0.001190407 0.011522421 0.001364621 0.000000000 0.000000000 0.000000000 0.000000000
 -0.003683372 -0.011370258 -0.000441024 0.003723862 0.000000000 0.000000000 0.000000000 0.000000000
22.300000 0.000000000 0.000000000 0.000000000 0.000000000 0.002193829 -0.003117402 -0.009739931 -0.006854343
 0.000000000 0.000000000 0.000000000 0.000000000 0.009940614 -0.005904918 0.001889952 0.003181633
 0.002193829 -0.003117402 0.009940614 -0.005904918 0.000000000 0.000000000 0.000000000 0.000000000
 -0.009739931 -0.006854343 0.001889952 0.003181633 0.000000000 0.000000000 0.000000000 0.000000000
22.350000 0.000000000 0.000000000 0.000000000 0.000000000 -0.000116800 -0.003759805 -0.011862462 0.000368512
 0.000000000 0.000000000 0.000000000 0.000000000 0.004283158 -0.010695829 0.003390041 0.001357546
 -0.000116800 -0.003759805 0.004283158 -0.010695829 0.000000000 0.000000000 0.000000000 0.000000000
 -0.011862462 0.000368512 0.003390041 0.001357546 0.000000000 0.000000000 0.000000000 0.000000000
22.400000 0.000000000 0.000000000 0.000000000 0.000000000 -0.002320376 -0.002896926 -0.009230552 0.007393474
 0.000000000 0.000000000 0.000000000 0.000000000 -0.003095467 -0.011055923 0.003469803 -0.000971485
 -0.002320376 -0.002896926 -0.003095467 -0.011055923 0.000000000 0.000000000 0.000000000 0.000000000
 -0.009230552 0.007393474 0.003469803 -0.000971485 0.000000000 0.000000000 0.000000000 0.000000000
22.450000 0.000000000 0.000000000 0.000000000 0.000000000 -0.003547133 -0.000910191 -0.002929126 0.011415193
 0.000000000 0.000000000 0.000000000 0.000000000 -0.009149751 -0.006868279 0.002134235 -0.002843174
 -0.003547133 -0.000910191 -0.009149751 -0.006868279 0.000000000 0.000000000 0.000000000 0.000000000
 -0.002929126 0.011415193 0.002134235 -0.002843174 0.000000000 0.000000000 0.000000000 0.000000000
22.500000 0.000000000 0.000000000 0.000000000 0.000000000 -0.003337259 0.001383894 0.004498418 0.010847930
 0.000000000 0.000000000 0.000000000 0.000000000 -0.011400037 0.000113601 -0.000034948 -0.003507109
 -0.003337259 0.001383894 -0.011400037 0.000113601 0.000000000 0.000000000 0.000000000 0.000000000
 0.004498418 0.010847930 -0.000034948 -0.003507109 0.000000000 0.000000000 0.000000000 0.000000000
22.550000 0.000000000 0.000000000 0.000000000 0.000000000 -0.001812220 0.003068817 0.010076634 0.005950526
 0.000000000 0.000000000 0.000000000 0.000000000 -0.008947926 0.006999823 -0.002131781 -0.002725071
 -0.001812220 0.003068817 -0.008947926 0.006999823 0.000000000 0.000000000 0.000000000 0.000000000
 0.010076634 0.005950526 -0.002131781 -0.002725071 0.000000000 0.000000000 0.000000000 0.000000000
22.600000 0.000000000 0.000000000 0.000000000 0.000000000 0.000388879 0.003493880 0.011589831 -0.001289981
 0.000000000 0.000000000 0.000000000 0.000000000 -0.002834489 0.010960123 -0.003304048 -0.000854487
 0.000388879 0.003493880 -0.002834489 0.010960123 0.000000000 0.000000000 0.000000000 0.000000000
 0.011589831 -0.001289981 -0.003304048 -0.000854487 0.000000000 0.000000000 0.000000000 0.000000000
22.650000 0.000000000 0.000000000 0.000000000 0.000000000 0.002376403 0.002524871 0.008461958 -0.007964377
 0.000000000 0.000000000 0.000000000 0.000000000 0.004401358 0.010386959 -0.003099251 0.001313273
 0.002376403 0.002524871 0.004401358 0.010386959 0.000000000 0.000000000 0.000000000 0.000000000
 0.008461958 -0.007964377 -0.003099251 0.001313273 0.000000000 0.000000000 0.000000000 0.000000000
22.700000 0.000000000 0.000000000 0.000000000 0.000000000 0.003369415 0.000583289 0.001975224 -0.011410047
 0.000000000 0.000000000 0.000000000 0.000000000 0.009777112 0.005547760 -0.001638267 0.002887205
 0.003369415 0.000583289 0.009777112 0.005547760 0.000000000 0.000000000 0.000000000 0.000000000
 0.001975224 -0.011410047 -0.001638267 0.002887205 0.000000000 0.000000000 0.000000000 0.000000000
22.750000 0.000000000 0.000000000 0.000000000 0.000000000 0.003002092 -0.001535741 -0.005255228 -0.010273009
 0.000000000 0.000000000 0.000000000 0.000000000 0.011095883 -0.001538189 0.000449506 0.003242561
 0.003002092 -0.001535741 0.011095883 -0.001538189 0.000000000 0.000000000 0.000000000 0.000000000
 -0.005255228 -0.010273009 0.000449506 0.003242561 0.000000000 0.000000000 0.000000000 0.000000000
22.800000 0.000000000 0.000000000 0.000000000 0.000000000 0.001457290 -0.002988656 -0.010335482 -0.005039655
 0.000000000 0.000000000 0.000000000 0.000000000 0.007843988 -0.007942163 0.002296593 0.002268204
 0.001457290 -0.002988656 0.007843988 -0.007942163 0.000000000 0.000000000 0.000000000 0.000000000
 -0.010335482 -0.005039655 0.002296593 0.002268204 0.000000000 0.000000000 0.000000000 0.000000000
22.850000 0.000000000 0.000000000 0.000000000 0.000000000 -0.000620985 -0.003218937 -0.011250960 0.002170492
 0.000000000 0.000000000 0.000000000 0.000000000 0.001390289 -0.011036346 0.003157535 0.000397766
 -0.000620985 -0.003218937 0.001390289 -0.011036346 0.000000000 0.000000000 0.000000000 0.000000000
 -0.011250960 0.002170492 0.003157535 0.000397766 0.000000000 0.000000000 0.000000000 0.000000000
22.900000 0.000000000 0.000000000 0.000000000 0.000000000 -0.002395433 -0.002169583 -0.007665102 0.008463026
 0.000000000 0.000000000 0.000000000 0.000000000 -0.005589746 -0.009571967 0.002709315 -0.001582160
 -0.002395433 -0.002169583 -0.005589746 -0.009571967 0.000000000 0.000000000 0.000000000 0.000000000
 -0.007665102 0.008463026 0.002709315 -0.001582160 0.000000000 0.000000000 0.000000000 0.000000000
22.950000 0.000000000 0.000000000 0.000000000 0.000000000 -0.003172469 -0.000291766 -0.001042037 0.011330436
 0.000000000 0.000000000 0.000000000 0.000000000 -0.010223055 -0.004182959 0.001171209 -0.002862408
 -0.003172469 -0.000291766 -0.010223055 -0.004182959 0.000000000 0.000000000 0.000000000 0.000000000
 -0.001042037 0.011330436 0.001171209 -0.002862408 0.000000000 0.000000000 0.000000000 0.000000000
23.000000 0.000000000 0.000000000 0.000000000 0.000000000 -0.002672876 0.001648118 0.005950986 0.009651161
 0.000000000 0.000000000 0.000000000 0.000000000 -0.010621421 0.002887859 -0.000799789 -0.002941588
 -0.002672876 0.001648118 -0.010621421 0.002887859 0.000000000 0.000000000 0.000000000 0.000000000
 0.005950986 0.009651161 -0.000799789 -0.002941588 0.000000000 0.000000000 0.000000000 0.000000000
23.050000 0.000000000 0.000000000 0.000000000 0.000000000 -0.001130667 0.002880847 0.010517620 0.004127928
 0.000000000 0.000000000 0.000000000 0.000000000 -0.006650759 0.008722048 -0.002389028 -0.001821688
 -0.001130667 0.002880847 -0.006650759 0.008722048 0.000000000 0.000000000 0.000000000 0.000000000
 0.010517620 0.004127928 -0.002389028 -0.001821688 0.000000000 0.000000000 0.000000000 0.000000000
23.100000 0.000000000 0.000000000 0.000000000 0.000000000 0.000814177 0.002939062 0.010850471 -0.003005792
 0.000000000 0.000000000 0.000000000 0.000000000 0.000026082 0.010929981 -0.002960599 0.000007065
 0.000814177 0.002939062 0.000026082 0.010929981 0.000000000 0.000000000 0.000000000 0.000000000
 0.010850471 -0.003005792 -0.002960599 0.000007065 0.000000000 0.000000000 0.000000000 0.000000000
23.150000 0.000000000 0.000000000 0.000000000 0.000000000 0.002380747 0.001833668 0.006846210 -0.008888793
 0.000000000 0.000000000 0.000000000 0.000000000 0.006645479 0.008629438 -0.002311282 0.001779905
 0.002380747 0.001833668 0.006645479 0.008629438 0.000000000 0.000000000 0.000000000 0.000000000
 0.006846210 -0.008888793 -0.002311282 0.001779905 0.000000000 0.000000000 0.000000000 0.000000000
23.200000 0.000000000 0.000000000 0.000000000 0.000000000 0.002960454 0.000035723 0.000134899 -0.011179583
 0.000000000 0.000000000 0.000000000 0.000000000 0.010486799 0.002797681 -0.000740851 0.002776999
 0.002960454 0.000035723 0.010486799 0.002797681 0.000000000 0.000000000 0.000000000 0.000000000
 0.000134899 -0.011179583 -0.000740851 0.002776999 0.000000000 0.000000000 0.000000000 0.000000000
23.250000 0.000000000 0.000000000 0.000000000 0.000000000 0.002352967 -0.001723431 -0.006583370 -0.008988147
 0.000000000 0.000000000 0.000000000 0.000000000 0.009990455 -0.004143315 0.001084660 0.002615357
 0.002352967 -0.001723431 0.009990455 -0.004143315 0.000000000 0.000000000 0.000000000 0.000000000
 -0.006583370 -0.008988147 0.001084660 0.002615357 0.000000000 0.000000000 0.000000000 0.000000000
23.300000 0.000000000 0.000000000 0.000000000 0.000000000 0.000833571 -0.002749303 -0.010624646 -0.003221323
 0.000000000 0.000000000 0.000000000 0.000000000 0.005390850 -0.009332583 0.002414960 0.001394972
 0.000833571 -0.002749303 0.005390850 -0.009332583 0.000000000 0.000000000 0.000000000 0.000000000
 -0.010624646 -0.003221323 0.002414960 0.001394972 0.000000000 0.000000000 0.000000000 0.000000000
23.350000 0.000000000 0.000000000 0.000000000 0.000000000 -0.000969830 -0.002658084 -0.010393211 0.003792072
 0.000000000 0.000000000 0.000000000 0.000000000 -0.001392563 -0.010649275 0.002723573 -0.000356151
 -0.000969830 -0.002658084 -0.001392563 -0.010649275 0.000000000 0.000000000 0.000000000 0.000000000
 -0.010393211 0.003792072 0.002723573 -0.000356151 0.000000000 0.000000000 0.000000000 0.000000000
23.400000 0.000000000 0.000000000 0.000000000 0.000000000 -0.002335725 -0.001519337 -0.006011422 0.009241546
 0.000000000 0.000000000 0.000000000 0.000000000 -0.007556106 -0.007579261 0.001915596 -0.001909744
 -0.002335725 -0.001519337 -0.007556106 -0.007579261 0.000000000 0.000000000 0.000000000 0.000000000
 -0.006011422 0.009241546 0.001915596 -0.001909744 0.000000000 0.000000000 0.000000000 0.000000000
23.450000 0.000000000 0.000000000 0.000000000 0.000000000 -0.002737369 0.000185109 0.000741218 0.010961054
 0.000000000 0.000000000 0.000000000 0.000000000 -0.010570550 -0.001415202 0.000353427 -0.002639846
 -0.002737369 0.000185109 -0.010570550 -0.001415202 0.000000000 0.000000000 0.000000000 0.000000000
 0.000741218 0.010961054 0.000353427 -0.002639846 0.000000000 0.000000000 0.000000000 0.000000000
23.500000 0.000000000 0.000000000 0.000000000 0.000000000 -0.002045373 0.001764286 0.007150553 0.008289781
 0.000000000 0.000000000 0.000000000 0.000000000 -0.009218833 0.005287482 -0.001304603 -0.002274602
 -0.002045373 0.001764286 -0.009218833 0.005287482 0.000000000 0.000000000 0.000000000 0.000000000
 0.007150553 0.008289781 -0.001304603 -0.002274602 0.000000000 0.000000000 0.000000000 0.000000000
23.550000 0.000000000 0.000000000 0.000000000 0.000000000 -0.000566826 0.002597887 0.010658579 0.002325566
 0.000000000 0.000000000 0.000000000 0.000000000 -0.004087140 0.009769865 -0.002381275 -0.000996186
 -0.000566826 0.002597887 -0.004087140 0.009769865 0.000000000 0.000000000 0.000000000 0.000000000
 0.010658579 0.002325566 -0.002381275 -0.000996186 0.000000000 0.000000000 0.000000000 0.000000000
23.600000 0.000000000 0.000000000 0.000000000 0.000000000 0.001089600 0.002379559 0.009884214 -0.004525979
 0.000000000 0.000000000 0.000000000 0.000000000 0.002688695 0.010205004 -0.002456787 0.000647285
 0.001089600 0.002379559 0.002688695 0.010205004 0.000000000 0.000000000 0.000000000 0.000000000
 0.009884214 -0.004525979 -0.002456787 0.000647285 0.000000000 0.000000000 0.000000000 0.000000000
23.650000 0.000000000 0.000000000 0.000000000 0.000000000 0.002263805 0.001228417 0.005166752 -0.009521622
 0.000000000 0.000000000 0.000000000 0.000000000 0.008311976 0.006442356 -0.001531697 0.001976207
 0.002263805 0.001228417 0.008311976 0.006442356 0.000000000 0.000000000 0.000000000 0.000000000
 0.005166752 -0.009521622 -0.001531697 0.001976207 0.000000000 0.000000000 0.000000000 0.000000000
23.700000 0.000000000 0.000000000 0.000000000 0.000000000 0.002507031 -0.000371339 -0.001581724 -0.010678719
 0.000000000 0.000000000 0.000000000 0.000000000 0.010479349 0.000057913 -0.000013596 0.002460225
 0.002507031 -0.000371339 0.010479349 0.000057913 0.000000000 0.000000000 0.000000000 0.000000000
 -0.001581724 -0.010678719 -0.000013596 0.002460225 0.000000000 0.000000000 0.000000000 0.000000000
23.750000 0.000000000 0.000000000 0.000000000 0.000000000 0.001752752 -0.001773451 -0.007651190 -0.007561890
 0.000000000 0.000000000 0.000000000 0.000000000 0.008324111 -0.006305706 0.001461584 0.001929425
 0.001752752 -0.001773451 0.008324111 -0.006305706 0.000000000 0.000000000 0.000000000 0.000000000
 -0.007651190 -0.007561890 0.001461584 0.001929425 0.000000000 0.000000000 0.000000000 0.000000000
23.800000 0.000000000 0.000000000 0.000000000 0.000000000 0.000330883 -0.002430384 -0.010621837 -0.001446104
 0.000000000 0.000000000 0.000000000 0.000000000 0.002762393 -0.010032943 0.002295639 0.000632064
 0.000330883 -0.002430384 0.002762393 -0.010032943 0.000000000 0.000000000 0.000000000 0.000000000
 -0.010621837 -0.001446104 0.002295639 0.000632064 0.000000000 0.000000000 0.000000000 0.000000000
23.850000 0.000000000 0.000000000 0.000000000 0.000000000 -0.001175394 -0.002106754 -0.009328663 0.005204620
 0.000000000 0.000000000 0.000000000 0.000000000 -0.003895896 -0.009610210 0.002170337 -0.000879836
 -0.001175394 -0.002106754 -0.003895896 -0.009610210 0.000000000 0.000000000 0.000000000 0.000000000
 -0.009328663 0.005204620 0.002170337 -0.000879836 0.000000000 0.000000000 0.000000000 0.000000000
23.900000 0.000000000 0.000000000 0.000000000 0.000000000 -0.002168454 -0.000962354 -0.004318065 0.009729818
 0.000000000 0.000000000 0.000000000 0.000000000 -0.008906296 -0.005240297 0.001167888 -0.001984918
 -0.002168454 -0.000962354 -0.008906296 -0.005240297 0.000000000 0.000000000 0.000000000 0.000000000
 -0.004318065 0.009729818 0.001167888 -0.001984918 0.000000000 0.000000000 0.000000000 0.000000000
23.950000 0.000000000 0.000000000 0.000000000 0.000000000 -0.002273053 0.000523897 0.002382424 0.010336716
 0.000000000 0.000000000 0.000000000 0.000000000 -0.010220896 0.001253006 -0.000275537 -0.002247584
 -0.002273053 0.000523897 -0.010220896 0.001253006 0.000000000 0.000000000 0.000000000 0.000000000
 0.002382424 0.010336716 -0.000275537 -0.002247584 0.000000000 0.000000000 0.000000000 0.000000000
24.000000 0.000000000 0.000000000 0.000000000 0.000000000 -0.001477413 0.001753822 0.008084417 0.006810284
 0.000000000 0.000000000 0.000000000 0.000000000 -0.007325211 0.007185901 -0.001558899 -0.001589121
 -0.001477413 0.001753822 -0.007325211 0.007185901 0.000000000 0.000000000 0.000000000 0.000000000
 0.008084417 0.006810284 -0.001558899 -0.001589121 0.000000000 0.000000000 0.000000000 0.000000000
24.050000 0.000000000 0.000000000 0.000000000 0.000000000 -0.000125838 0.002250469 0.010517202 0.000588081
 0.000000000 0.000000000 0.000000000 0.000000000 -0.001438900 0.010123725 -0.002166273 -0.000307896
 -0.000125838 0.002250469 -0.001438900 0.010123725 0.000000000 0.000000000 0.000000000 0.000000000
 0.010517202 0.000588081 -0.002166273 -0.000307896 0.000000000 0.000000000 0.000000000 0.000000000
24.100000 0.000000000 0.000000000 0.000000000 0.000000000 0.001229337 0.001842638 0.008731856 -0.005825559
 0.000000000 0.000000000 0.000000000 0.000000000 0.004997694 0.008879908 -0.001873880 0.001054637
 0.001229337 0.001842638 0.004997694 0.008879908 0.000000000 0.000000000 0.000000000 0.000000000
 0.008731856 -0.005825559 -0.001873880 0.001054637 0.000000000 0.000000000 0.000000000 0.000000000
24.150000 0.000000000 0.000000000 0.000000000 0.000000000 0.002053133 0.000722229 0.003471034 -0.009867362
 0.000000000 0.000000000 0.000000000 0.000000000 0.009335134 0.003994940 -0.000831240 0.001942391
 0.002053133 0.000722229 0.009335134 0.003994940 0.000000000 0.000000000 0.000000000 0.000000000
 0.003471034 -0.009867362 -0.000831240 0.001942391 0.000000000 0.000000000 0.000000000 0.000000000
24.200000 0.000000000 0.000000000 0.000000000 0.000000000 0.002038824 -0.000643996 -0.003139531 -0.009939421
 0.000000000 0.000000000 0.000000000 0.000000000 0.009805328 -0.002497887 0.000512379 0.002011318
 0.002038824 -0.000643996 0.009805328 -0.002497887 0.000000000 0.000000000 0.000000000 0.000000000
 -0.003139531 -0.009939421 0.000512379 0.002011318 0.000000000 0.000000000 0.000000000 0.000000000
24.250000 0.000000000 0.000000000 0.000000000 0.000000000 0.001221313 -0.001708390 -0.008449833 -0.006040712
 0.000000000 0.000000000 0.000000000 0.000000000 0.006242070 -0.007918655 0.001600996 0.001262024
 0.001221313 -0.001708390 0.006242070 -0.007918655 0.000000000 0.000000000 0.000000000 0.000000000
 -0.008449833 -0.006040712 0.001600996 0.001262024 0.000000000 0.000000000 0.000000000 0.000000000
24.300000 0.000000000 0.000000000 0.000000000 0.000000000 -0.000048551 -0.002061685 -0.010347798 0.000243681
 0.000000000 0.000000000 0.000000000 0.000000000 0.000138131 -0.010046844 0.002001723 0.000027521
 -0.000048551 -0.002061685 0.000138131 -0.010046844 0.000000000 0.000000000 0.000000000 0.000000000
 -0.010347798 0.000243681 0.002001723 0.000027521 0.000000000 0.000000000 0.000000000 0.000000000
24.350000 0.000000000 0.000000000 0.000000000 0.000000000 -0.001253740 -0.001589873 -0.008099162 0.006386825
 0.000000000 0.000000000 0.000000000 0.000000000 -0.005979915 -0.008030773 0.001576448 -0.001173863
 -0.001253740 -0.001589873 -0.005979915 -0.008030773 0.000000000 0.000000000 0.000000000 0.000000000
 -0.008099162 0.006386825 0.001576448 -0.001173863 0.000000000 0.000000000 0.000000000 0.000000000
24.400000 0.000000000 0.000000000 0.000000000 0.000000000 -0.001921266 -0.000508769 -0.002631119 0.009935895
 0.000000000 0.000000000 0.000000000 0.000000000 -0.009597387 -0.002728063 0.000527515 -0.001855810
 -0.001921266 -0.000508769 -0.009597387 -0.002728063 0.000000000 0.000000000 0.000000000 0.000000000
 -0.002631119 0.009935895 0.000527515 -0.001855810 0.000000000 0.000000000 0.000000000 0.000000000
24.450000 0.000000000 0.000000000 0.000000000 0.000000000 -0.001807492 0.000733112 0.003849678 0.009491406
 0.000000000 0.000000000 0.000000000 0.000000000 -0.009244966 0.003658835 -0.000696769 -0.001760562
 -0.001807492 0.000733112 -0.009244966 0.003658835 0.000000000 0.000000000 0.000000000 0.000000000
 0.003849678 0.009491406 -0.000696769 -0.001760562 0.000000000 0.000000000 0.000000000 0.000000000
24.500000 0.000000000 0.000000000 0.000000000 0.000000000 -0.000986064 0.001640209 0.008747491 0.005258832
 0.000000000 0.000000000 0.000000000 0.000000000 -0.005095275 0.008497281 -0.001593293 -0.000955396
 -0.000986064 0.001640209 -0.005095275 0.008497281 0.000000000 0.000000000 0.000000000 0.000000000
 0.008747491 0.005258832 -0.001593293 -0.000955396 0.000000000 0.000000000 0.000000000 0.000000000
24.550000 0.000000000 0.000000000 0.000000000 0.000000000 0.000192833 0.001867414 0.010117049 -0.001044704
 0.000000000 0.000000000 0.000000000 0.000000000 0.001119579 0.009809488 -0.001810644 0.000206653
 0.000192833 0.001867414 0.001119579 0.009809488 0.000000000 0.000000000 0.000000000 0.000000000
 0.010117049 -0.001044704 -0.001810644 0.000206653 0.000000000 0.000000000 0.000000000 0.000000000
24.600000 0.000000000 0.000000000 0.000000000 0.000000000 0.001251065 0.001350812 0.007435990 -0.006886898
 0.000000000 0.000000000 0.000000000 0.000000000 0.006830833 0.007080813 -0.001286291 0.001240880
 0.001251065 0.001350812 0.006830833 0.007080813 0.000000000 0.000000000 0.000000000 0.000000000
 0.007435990 -0.006886898 -0.001286291 0.001240880 0.000000000 0.000000000 0.000000000 0.000000000
24.650000 0.000000000 0.000000000 0.000000000 0.000000000 0.001776213 0.000322363 0.001803538 -0.009937443
 0.000000000 0.000000000 0.000000000 0.000000000 0.009694690 0.001461014 -0.000261141 0.001732823
 0.001776213 0.000322363 0.009694690 0.001461014 0.000000000 0.000000000 0.000000000 0.000000000
 0.001803538 -0.009937443 -0.000261141 0.001732823 0.000000000 0.000000000 0.000000000 0.000000000
24.700000 0.000000000 0.000000000 0.000000000 0.000000000 0.001581952 -0.000792948 -0.004509918 -0.008997407
 0.000000000 0.000000000 0.000000000 0.000000000 0.008554041 -0.004719958 0.000829878 0.001503998
 0.001581952 -0.000792948 0.008554041 -0.004719958 0.000000000 0.000000000 0.000000000 0.000000000
 -0.004509918 -0.008997407 0.000829878 0.001503998 0.000000000 0.000000000 0.000000000 0.000000000
24.750000 0.000000000 0.000000000 0.000000000 0.000000000 0.000772938 -0.001552362 -0.008977877 -0.004470180
 0.000000000 0.000000000 0.000000000 0.000000000 0.003905712 -0.008917832 0.001541980 0.000675336
 0.000772938 -0.001552362 0.003905712 -0.008917832 0.000000000 0.000000000 0.000000000 0.000000000
 -0.008977877 -0.004470180 0.001541980 0.000675336 0.000000000 0.000000000 0.000000000 0.000000000
24.800000 0.000000000 0.000000000 0.000000000 0.000000000 -0.000307847 -0.001670864 -0.009828656 0.001810872
 0.000000000 0.000000000 0.000000000 0.000000000 -0.002315320 -0.009421194 0.001601595 -0.000393602
 -0.000307847 -0.001670864 -0.002315320 -0.009421194 0.000000000 0.000000000 0.000000000 0.000000000
 -0.009828656 0.001810872 0.001601595 -0.000393602 0.000000000 0.000000000 0.000000000 0.000000000
24.850000 0.000000000 0.000000000 0.000000000 0.000000000 -0.001223896 -0.001127492 -0.006747752 0.007324710
 0.000000000 0.000000000 0.000000000 0.000000000 -0.007541267 -0.006049029 0.001010741 -0.001260081
 -0.001223896 -0.001127492 -0.007541267 -0.006049029 0.000000000 0.000000000 0.000000000 0.000000000
 -0.006747752 0.007324710 0.001010741 -0.001260081 0.000000000 0.000000000 0.000000000 0.000000000
24.900000 0.000000000 0.000000000 0.000000000 0.000000000 -0.001621241 -0.000163077 -0.000993241 0.009874392
 0.000000000 0.000000000 0.000000000 0.000000000 -0.009631297 -0.000214384 0.000035199 -0.001581328
 -0.001621241 -0.000163077 -0.009631297 -0.000214384 0.000000000 0.000000000 0.000000000 0.000000000
 -0.000993241 0.009874392 0.000035199 -0.001581328 0.000000000 0.000000000 0.000000000 0.000000000
24.950000 0.000000000 0.000000000 0.000000000 0.000000000 -0.001364832 0.000825410 0.005117737 0.008462286
 0.000000000 0.000000000 0.000000000 0.000000000 -0.007748395 0.005667549 -0.000914086 -0.001249693
 -0.001364832 0.000825410 -0.007748395 0.005667549 0.000000000 0.000000000 0.000000000 0.000000000
 0.005117737 0.008462286 -0.000914086 -0.001249693 0.000000000 0.000000000 0.000000000 0.000000000
25.000000 0.000000000 0.000000000 0.000000000 0.000000000 -0.000582876 0.001447934 0.009141894 0.003680135
 0.000000000 0.000000000 0.000000000 0.000000000 -0.002694218 0.009179067 -0.001453821 -0.000426722
 -0.000582876 0.001447934 -0.002694218 0.009179067 0.000000000 0.000000000 0.000000000 0.000000000
 0.009141894 0.003680135 -0.001453821 -0.000426722 0.000000000 0.000000000 0.000000000 0.000000000
