! Synthetic 5 in FR4-like trace, S21 only (applied to both legs). Generated for DAW_LAB.
# GHz S RI R 50
0.083333 0.000000000 0.000000000 0.887892680 -0.459476993 0.887892680 -0.459476993 0.000000000 0.000000000
0.166667 0.000000000 0.000000000 0.576944032 -0.815492584 0.576944032 -0.815492584 0.000000000 0.000000000
0.250000 0.000000000 0.000000000 0.137470225 -0.988114152 0.137470225 -0.988114152 0.000000000 0.000000000
0.333333 0.000000000 0.000000000 -0.331337559 -0.939055655 -0.331337559 -0.939055655 0.000000000 0.000000000
0.416667 0.000000000 0.000000000 -0.724029831 -0.680233715 -0.724029831 -0.680233715 0.000000000 0.000000000
0.500000 0.000000000 0.000000000 -0.952848031 -0.270833918 -0.952848031 -0.270833918 0.000000000 0.000000000
0.583333 0.000000000 0.000000000 -0.967507681 0.196379565 -0.967507681 0.196379565 0.000000000 0.000000000
0.666667 0.000000000 0.000000000 -0.766312497 0.616303065 -0.766312497 0.616303065 0.000000000 0.000000000
0.750000 0.000000000 0.000000000 -0.396128294 0.895361136 -0.396128294 0.895361136 0.000000000 0.000000000
0.833333 0.000000000 0.000000000 0.058669988 0.972525580 0.058669988 0.972525580 0.000000000 0.000000000
0.916667 0.000000000 0.000000000 0.495635115 0.832723060 0.495635115 0.832723060 0.000000000 0.000000000
1.000000 0.000000000 0.000000000 0.817537346 0.509672725 0.817537346 0.509672725 0.000000000 0.000000000
1.083333 0.000000000 0.000000000 0.954158682 0.077654847 0.954158682 0.077654847 0.000000000 0.000000000
1.166667 0.000000000 0.000000000 0.877667586 -0.365753327 0.877667586 -0.365753327 0.000000000 0.000000000
1.250000 0.000000000 0.000000000 0.608196614 -0.721914199 0.608196614 -0.721914199 0.000000000 0.000000000
1.333333 0.000000000 0.000000000 0.208535593 -0.913221938 0.208535593 -0.913221938 0.000000000 0.000000000
1.416667 0.000000000 0.000000000 -0.230655008 -0.900066506 -0.230655008 -0.900066506 0.000000000 0.000000000
1.500000 0.000000000 0.000000000 -0.611588111 -0.688951937 -0.611588111 -0.688951937 0.000000000 0.000000000
1.583333 0.000000000 0.000000000 -0.851260846 -0.330133036 -0.851260846 -0.330133036 0.000000000 0.000000000
1.666667 0.000000000 0.000000000 -0.899590676 0.094463380 -0.899590676 0.094463380 0.000000000 0.000000000
1.750000 0.000000000 0.000000000 -0.749806161 0.490099513 -0.749806161 0.490099513 0.000000000 0.000000000
1.833333 0.000000000 0.000000000 -0.438962461 0.770489830 -0.438962461 0.770489830 0.000000000 0.000000000
1.916667 0.000000000 0.000000000 -0.038720176 0.876665929 -0.038720176 0.876665929 0.000000000 0.000000000
2.000000 0.000000000 0.000000000 0.361302602 0.789311982 0.361302602 0.789311982 0.000000000 0.000000000
2.083333 0.000000000 0.000000000 0.673706674 0.532013917 0.673706674 0.532013917 0.000000000 0.000000000
2.166667 0.000000000 0.000000000 0.832449946 0.164961668 0.832449946 0.164961668 0.000000000 0.000000000
2.250000 0.000000000 0.000000000 0.806751239 -0.229224944 0.806751239 -0.229224944 0.000000000 0.000000000
2.333333 0.000000000 0.000000000 0.606853702 -0.564186511 0.606853702 -0.564186511 0.000000000 0.000000000
2.416667 0.000000000 0.000000000 0.280632142 -0.768782477 0.280632142 -0.768782477 0.000000000 0.000000000
2.500000 0.000000000 0.000000000 -0.097922474 -0.802151347 -0.097922474 -0.802151347 0.000000000 0.000000000
2.583333 0.000000000 0.000000000 -0.445559562 -0.661703164 -0.445559562 -0.661703164 0.000000000 0.000000000
2.666667 0.000000000 0.000000000 -0.688110945 -0.382532077 -0.688110945 -0.382532077 0.000000000 0.000000000
2.750000 0.000000000 0.000000000 -0.776273761 -0.028664464 -0.776273761 -0.028664464 0.000000000 0.000000000
2.833333 0.000000000 0.000000000 -0.695491899 0.321677433 -0.695491899 0.321677433 0.000000000 0.000000000
2.916667 0.000000000 0.000000000 -0.467997865 0.593394440 -0.467997865 0.593394440 0.000000000 0.000000000
3.000000 0.000000000 0.000000000 -0.146848574 0.730575101 -0.146848574 0.730575101 0.000000000 0.000000000
3.083333 0.000000000 0.000000000 0.196473150 0.707883535 0.196473150 0.707883535 0.000000000 0.000000000
3.166667 0.000000000 0.000000000 0.487989959 0.534986474 0.487989959 0.534986474 0.000000000 0.000000000
3.250000 0.000000000 0.000000000 0.667142695 0.253321360 0.667142695 0.253321360 0.000000000 0.000000000
3.333333 0.000000000 0.000000000 0.699273439 -0.073820345 0.699273439 -0.073820345 0.000000000 0.000000000
3.416667 0.000000000 0.000000000 0.582135347 -0.375525446 0.582135347 -0.375525446 0.000000000 0.000000000
3.500000 0.000000000 0.000000000 0.345262572 -0.588607372 0.345262572 -0.588607372 0.000000000 0.000000000
3.583333 0.000000000 0.000000000 0.042603033 -0.670758832 0.042603033 -0.670758832 0.000000000 0.000000000
3.666667 0.000000000 0.000000000 -0.259764703 -0.608795632 -0.259764703 -0.608795632 0.000000000 0.000000000
3.750000 0.000000000 0.000000000 -0.498037188 -0.420429382 -0.498037188 -0.420429382 0.000000000 0.000000000
3.833333 0.000000000 0.000000000 -0.624082940 -0.149441292 -0.624082940 -0.149441292 0.000000000 0.000000000
3.916667 0.000000000 0.000000000 -0.615037913 0.144469520 -0.615037913 0.144469520 0.000000000 0.000000000
4.000000 0.000000000 0.000000000 -0.477222214 0.398816570 -0.477222214 0.398816570 0.000000000 0.000000000
4.083333 0.000000000 0.000000000 -0.243773135 0.561555815 -0.243773135 0.561555815 0.000000000 0.000000000
4.166667 0.000000000 0.000000000 0.033264456 0.601630736 0.033264456 0.601630736 0.000000000 0.000000000
4.250000 0.000000000 0.000000000 0.294515847 0.514725086 0.294515847 0.514725086 0.000000000 0.000000000
4.333333 0.000000000 0.000000000 0.485955362 0.323205224 0.485955362 0.323205224 0.000000000 0.000000000
4.416667 0.000000000 0.000000000 0.569993282 0.070490485 0.569993282 0.070490485 0.000000000 0.000000000
4.500000 0.000000000 0.000000000 0.532719366 -0.188756486 0.532719366 -0.188756486 0.000000000 0.000000000
4.583333 0.000000000 0.000000000 0.385943874 -0.400412853 0.385943874 -0.400412853 0.000000000 0.000000000
4.666667 0.000000000 0.000000000 0.163814424 -0.522124544 0.163814424 -0.522124544 0.000000000 0.000000000
4.750000 0.000000000 0.000000000 -0.085077429 -0.531670921 -0.085077429 -0.531670921 0.000000000 0.000000000
4.833333 0.000000000 0.000000000 -0.308287732 -0.430842448 -0.308287732 -0.430842448 0.000000000 0.000000000
4.916667 0.000000000 0.000000000 -0.460512285 -0.244203139 -0.460512285 -0.244203139 0.000000000 0.000000000
5.000000 0.000000000 0.000000000 -0.512691686 -0.013192214 -0.512691686 -0.013192214 0.000000000 0.000000000
5.083333 0.000000000 0.000000000 -0.457423085 0.213036892 -0.457423085 0.213036892 0.000000000 0.000000000
5.166667 0.000000000 0.000000000 -0.309706067 0.388025755 -0.309706067 0.388025755 0.000000000 0.000000000
5.250000 0.000000000 0.000000000 -0.103049224 0.477477700 -0.103049224 0.477477700 0.000000000 0.000000000
5.333333 0.000000000 0.000000000 0.118083683 0.465872429 0.118083683 0.465872429 0.000000000 0.000000000
5.416667 0.000000000 0.000000000 0.307796779 0.358980147 0.307796779 0.358980147 0.000000000 0.000000000
5.500000 0.000000000 0.000000000 0.428226562 0.181916714 0.428226562 0.181916714 0.000000000 0.000000000
5.583333 0.000000000 0.000000000 0.457012084 -0.026691856 0.457012084 -0.026691856 0.000000000 0.000000000
5.666667 0.000000000 0.000000000 0.391318891 -0.223094148 0.391318891 -0.223094148 0.000000000 0.000000000
5.750000 0.000000000 0.000000000 0.247725348 -0.367538024 0.247725348 -0.367538024 0.000000000 0.000000000
5.833333 0.000000000 0.000000000 0.058150692 -0.432245551 0.058150692 -0.432245551 0.000000000 0.000000000
5.916667 0.000000000 0.000000000 -0.137196462 -0.406656108 -0.137196462 -0.406656108 0.000000000 0.000000000
6.000000 0.000000000 0.000000000 -0.298302064 -0.298972567 -0.298302064 -0.298972567 0.000000000 0.000000000
6.083333 0.000000000 0.000000000 -0.393484306 -0.133834002 -0.393484306 -0.133834002 0.000000000 0.000000000
6.166667 0.000000000 0.000000000 -0.405544746 0.053268490 -0.405544746 0.053268490 0.000000000 0.000000000
6.250000 0.000000000 0.000000000 -0.334758008 0.223579199 -0.334758008 0.223579199 0.000000000 0.000000000
6.333333 0.000000000 0.000000000 -0.198210247 0.343056478 -0.198210247 0.343056478 0.000000000 0.000000000
6.416667 0.000000000 0.000000000 -0.025754106 0.389112334 -0.025754106 0.389112334 0.000000000 0.000000000
6.500000 0.000000000 0.000000000 0.146477989 0.354794335 0.146477989 0.354794335 0.000000000 0.000000000
6.583333 0.000000000 0.000000000 0.283602249 0.249657173 0.283602249 0.249657173 0.000000000 0.000000000
6.666667 0.000000000 0.000000000 0.358995429 0.097267324 0.358995429 0.097267324 0.000000000 0.000000000
6.750000 0.000000000 0.000000000 0.359393714 -0.070034715 0.359393714 -0.070034715 0.000000000 0.000000000
6.833333 0.000000000 0.000000000 0.287118818 -0.217960491 0.287118818 -0.217960491 0.000000000 0.000000000
6.916667 0.000000000 0.000000000 0.159084893 -0.317256277 0.159084893 -0.317256277 0.000000000 0.000000000
7.000000 0.000000000 0.000000000 0.002900004 -0.349431165 0.002900004 -0.349431165 0.000000000 0.000000000
7.083333 0.000000000 0.000000000 -0.149051481 -0.310122503 -0.149051481 -0.310122503 0.000000000 0.000000000
7.166667 0.000000000 0.000000000 -0.266285562 -0.209504866 -0.266285562 -0.209504866 0.000000000 0.000000000
7.250000 0.000000000 0.000000000 -0.326286934 -0.069763298 -0.326286934 -0.069763298 0.000000000 0.000000000
7.333333 0.000000000 0.000000000 -0.318772142 0.079760514 -0.318772142 0.079760514 0.000000000 0.000000000
7.416667 0.000000000 0.000000000 -0.247354653 0.208695578 -0.247354653 0.208695578 0.000000000 0.000000000
7.500000 0.000000000 0.000000000 -0.128367040 0.291770866 -0.128367040 0.291770866 0.000000000 0.000000000
7.583333 0.000000000 0.000000000 0.012827114 0.313718844 0.012827114 0.313718844 0.000000000 0.000000000
7.666667 0.000000000 0.000000000 0.147208463 0.272013302 0.147208463 0.272013302 0.000000000 0.000000000
7.750000 0.000000000 0.000000000 0.248032401 0.176966688 0.248032401 0.176966688 0.000000000 0.000000000
7.833333 0.000000000 0.000000000 0.296110718 0.049255821 0.296110718 0.049255821 0.000000000 0.000000000
7.916667 0.000000000 0.000000000 0.283410855 -0.084544198 0.283410855 -0.084544198 0.000000000 0.000000000
8.000000 0.000000000 0.000000000 0.214309743 -0.197460327 0.214309743 -0.197460327 0.000000000 0.000000000
8.083333 0.000000000 0.000000000 0.104329148 -0.267524609 0.104329148 -0.267524609 0.000000000 0.000000000
8.166667 0.000000000 0.000000000 -0.023312969 -0.282005552 -0.023312969 -0.282005552 0.000000000 0.000000000
8.250000 0.000000000 0.000000000 -0.142576729 -0.239662495 -0.142576729 -0.239662495 0.000000000 0.000000000
8.333333 0.000000000 0.000000000 -0.229883151 -0.150637751 -0.229883151 -0.150637751 0.000000000 0.000000000
8.416667 0.000000000 0.000000000 -0.268740539 -0.034083832 -0.268740539 -0.034083832 0.000000000 0.000000000
8.500000 0.000000000 0.000000000 -0.252814691 0.085929709 -0.252814691 0.085929709 0.000000000 0.000000000
8.583333 0.000000000 0.000000000 -0.186881616 0.185361059 -0.186881616 0.185361059 0.000000000 0.000000000
8.666667 0.000000000 0.000000000 -0.085540169 0.244982575 -0.085540169 0.244982575 0.000000000 0.000000000
8.750000 0.000000000 0.000000000 0.029989330 0.254062673 0.029989330 0.254062673 0.000000000 0.000000000
8.833333 0.000000000 0.000000000 0.136284903 0.212246276 0.136284903 0.212246276 0.000000000 0.000000000
8.916667 0.000000000 0.000000000 0.212445889 0.129316327 0.212445889 0.129316327 0.000000000 0.000000000
9.000000 0.000000000 0.000000000 0.244172445 0.022948981 0.244172445 0.022948981 0.000000000 0.000000000
9.083333 0.000000000 0.000000000 0.226412048 -0.085030767 0.226412048 -0.085030767 0.000000000 0.000000000
9.166667 0.000000000 0.000000000 0.164091870 -0.173104893 0.164091870 -0.173104893 0.000000000 0.000000000
9.250000 0.000000000 0.000000000 0.070849817 -0.224324910 0.070849817 -0.224324910 0.000000000 0.000000000
9.333333 0.000000000 0.000000000 -0.033924137 -0.229542462 -0.033924137 -0.229542462 0.000000000 0.000000000
9.416667 0.000000000 0.000000000 -0.129099795 -0.188999029 -0.129099795 -0.188999029 0.000000000 0.000000000
9.500000 0.000000000 0.000000000 -0.196046219 -0.112008797 -0.196046219 -0.112008797 0.000000000 0.000000000
9.583333 0.000000000 0.000000000 -0.222253104 -0.014853861 -0.222253104 -0.014853861 0.000000000 0.000000000
9.666667 0.000000000 0.000000000 -0.203635818 0.082639331 -0.203635818 0.082639331 0.000000000 0.000000000
9.750000 0.000000000 0.000000000 -0.145106713 0.161126708 -0.145106713 0.161126708 0.000000000 0.000000000
9.833333 0.000000000 0.000000000 -0.059350146 0.205562905 -0.059350146 0.205562905 0.000000000 0.000000000
9.916667 0.000000000 0.000000000 0.035904848 0.208059086 0.035904848 0.208059086 0.000000000 0.000000000
10.000000 0.000000000 0.000000000 0.121532273 0.169245171 0.121532273 0.169245171 0.000000000 0.000000000
10.083333 0.000000000 0.000000000 0.180830608 0.097910138 0.180830608 0.097910138 0.000000000 0.000000000
10.166667 0.000000000 0.000000000 0.202758543 0.009040274 0.202758543 0.009040274 0.000000000 0.000000000
10.250000 0.000000000 0.000000000 0.183962900 -0.079312231 0.183962900 -0.079312231 0.000000000 0.000000000
10.333333 0.000000000 0.000000000 0.129232477 -0.149679663 0.129232477 -0.149679663 0.000000000 0.000000000
10.416667 0.000000000 0.000000000 0.050332177 -0.188613596 0.050332177 -0.188613596 0.000000000 0.000000000
10.500000 0.000000000 0.000000000 -0.036507734 -0.189232788 -0.036507734 -0.189232788 0.000000000 0.000000000
10.583333 0.000000000 0.000000000 -0.113915211 -0.152406277 -0.113915211 -0.152406277 0.000000000 0.000000000
10.666667 0.000000000 0.000000000 -0.166835508 -0.086375936 -0.166835508 -0.086375936 0.000000000 0.000000000
10.750000 0.000000000 0.000000000 -0.185440493 -0.004935361 -0.185440493 -0.004935361 0.000000000 0.000000000
10.833333 0.000000000 0.000000000 -0.166929998 0.075437030 -0.166929998 0.075437030 0.000000000 0.000000000
10.916667 0.000000000 0.000000000 -0.115900302 0.138897930 -0.115900302 0.138897930 0.000000000 0.000000000
11.000000 0.000000000 0.000000000 -0.043245582 0.173346302 -0.043245582 0.173346302 0.000000000 0.000000000
11.083333 0.000000000 0.000000000 0.036152350 0.172711835 0.036152350 0.172711835 0.000000000 0.000000000
11.166667 0.000000000 0.000000000 0.106459278 0.137996004 0.106459278 0.137996004 0.000000000 0.000000000
11.250000 0.000000000 0.000000000 0.154032529 0.076893802 0.154032529 0.076893802 0.000000000 0.000000000
11.333333 0.000000000 0.000000000 0.170052349 0.002107676 0.170052349 0.002107676 0.000000000 0.000000000
11.416667 0.000000000 0.000000000 0.152136588 -0.071280643 0.152136588 -0.071280643 0.000000000 0.000000000
11.500000 0.000000000 0.000000000 0.104647546 -0.128839324 0.104647546 -0.128839324 0.000000000 0.000000000
11.583333 0.000000000 0.000000000 0.037664353 -0.159610816 0.037664353 -0.159610816 0.000000000 0.000000000
11.666667 0.000000000 0.000000000 -0.035142987 -0.158181598 -0.035142987 -0.158181598 0.000000000 0.000000000
11.750000 0.000000000 0.000000000 -0.099292171 -0.125609835 -0.099292171 -0.125609835 0.000000000 0.000000000
11.833333 0.000000000 0.000000000 -0.142357400 -0.069057626 -0.142357400 -0.069057626 0.000000000 0.000000000
11.916667 0.000000000 0.000000000 -0.156362673 -0.000232700 -0.156362673 -0.000232700 0.000000000 0.000000000
12.000000 0.000000000 0.000000000 -0.139241478 0.067024581 -0.139241478 0.067024581 0.000000000 0.000000000
12.083333 0.000000000 0.000000000 -0.095099574 0.119513861 -0.095099574 0.119513861 0.000000000 0.000000000
12.166667 0.000000000 0.000000000 -0.033258911 0.147253868 -0.033258911 0.147253868 0.000000000 0.000000000
12.250000 0.000000000 0.000000000 0.033699600 0.145366523 0.033699600 0.145366523 0.000000000 0.000000000
12.333333 0.000000000 0.000000000 0.092485857 0.114913372 0.092485857 0.114913372 0.000000000 0.000000000
12.416667 0.000000000 0.000000000 0.131728161 0.062545793 0.131728161 0.062545793 0.000000000 0.000000000
12.500000 0.000000000 0.000000000 0.144161304 -0.000933643 0.144161304 -0.000933643 0.000000000 0.000000000
12.583333 0.000000000 0.000000000 0.127956583 -0.062790219 0.127956583 -0.062790219 0.000000000 0.000000000
12.666667 0.000000000 0.000000000 0.086953518 -0.110902649 0.086953518 -0.110902649 0.000000000 0.000000000
12.750000 0.000000000 0.000000000 0.029774046 -0.136128262 0.029774046 -0.136128262 0.000000000 0.000000000
12.833333 0.000000000 0.000000000 -0.031980615 -0.134028412 -0.031980615 -0.134028412 0.000000000 0.000000000
12.916667 0.000000000 0.000000000 -0.086075345 -0.105631013 -0.086075345 -0.105631013 0.000000000 0.000000000
13.000000 0.000000000 0.000000000 -0.122056334 -0.057103384 -0.122056334 -0.057103384 0.000000000 0.000000000
13.083333 0.000000000 0.000000000 -0.133261243 0.001575033 -0.133261243 0.001575033 0.000000000 0.000000000
13.166667 0.000000000 0.000000000 -0.118039872 0.058656771 -0.118039872 0.058656771 0.000000000 0.000000000
13.250000 0.000000000 0.000000000 -0.079964473 0.102970256 -0.079964473 0.102970256 0.000000000 0.000000000
13.333333 0.000000000 0.000000000 -0.027011765 0.126097513 -0.027011765 0.126097513 0.000000000 0.000000000
13.416667 0.000000000 0.000000000 0.030099632 0.123962995 0.030099632 0.123962995 0.000000000 0.000000000
13.500000 0.000000000 0.000000000 0.080071525 0.097535813 0.080071525 0.097535813 0.000000000 0.000000000
13.583333 0.000000000 0.000000000 0.113253566 0.052527947 0.113253566 0.052527947 0.000000000 0.000000000
13.666667 0.000000000 0.000000000 0.123498212 -0.001829832 0.123498212 -0.001829832 0.000000000 0.000000000
13.750000 0.000000000 0.000000000 0.109288501 -0.054674046 0.109288501 -0.054674046 0.000000000 0.000000000
13.833333 0.000000000 0.000000000 0.073934117 -0.095672690 0.073934117 -0.095672690 0.000000000 0.000000000
13.916667 0.000000000 0.000000000 0.024818073 -0.117037793 0.024818073 -0.117037793 0.000000000 0.000000000
14.000000 0.000000000 0.000000000 -0.028137616 -0.114995916 -0.028137616 -0.114995916 0.000000000 0.000000000
14.083333 0.000000000 0.000000000 -0.074469915 -0.090440782 -0.074469915 -0.090440782 0.000000000 0.000000000
14.166667 0.000000000 0.000000000 -0.105235393 -0.048658252 -0.105235393 -0.048658252 0.000000000 0.000000000
14.250000 0.000000000 0.000000000 -0.114729052 0.001802369 -0.114729052 0.001802369 0.000000000 0.000000000
14.333333 0.000000000 0.000000000 -0.101532578 0.050871453 -0.101532578 0.050871453 0.000000000 0.000000000
14.416667 0.000000000 0.000000000 -0.068701460 0.088962462 -0.068701460 0.088962462 0.000000000 0.000000000
14.500000 0.000000000 0.000000000 -0.023072844 0.108838315 -0.023072844 0.108838315 0.000000000 0.000000000
14.583333 0.000000000 0.000000000 0.026151780 0.106978696 0.026151780 0.106978696 0.000000000 0.000000000
14.666667 0.000000000 0.000000000 0.069256568 0.084191593 0.069256568 0.084191593 0.000000000 0.000000000
14.750000 0.000000000 0.000000000 0.097923197 0.045365474 0.097923197 0.045365474 0.000000000 0.000000000
14.833333 0.000000000 0.000000000 0.106829614 -0.001571371 0.106829614 -0.001571371 0.000000000 0.000000000
14.916667 0.000000000 0.000000000 0.094629718 -0.047264361 0.094629718 -0.047264361 0.000000000 0.000000000
15.000000 0.000000000 0.000000000 0.064135429 -0.082791731 0.064135429 -0.082791731 0.000000000 0.000000000
15.083333 0.000000000 0.000000000 0.021682073 -0.101400849 0.021682073 -0.101400849 0.000000000 0.000000000
15.166667 0.000000000 0.000000000 -0.024182053 -0.099784995 -0.024182053 -0.099784995 0.000000000 0.000000000
15.250000 0.000000000 0.000000000 -0.064412043 -0.078660575 -0.064412043 -0.078660575 0.000000000 0.000000000
15.333333 0.000000000 0.000000000 -0.091245048 -0.042546308 -0.091245048 -0.042546308 0.000000000 0.000000000
15.416667 0.000000000 0.000000000 -0.099692529 0.001196269 -0.099692529 0.001196269 0.000000000 0.000000000
15.500000 0.000000000 0.000000000 -0.088460411 0.043858586 -0.088460411 0.043858586 0.000000000 0.000000000
15.583333 0.000000000 0.000000000 -0.060128940 0.077114181 -0.060128940 0.077114181 0.000000000 0.000000000
15.666667 0.000000000 0.000000000 -0.020571959 0.094638801 -0.020571959 0.094638801 0.000000000 0.000000000
15.750000 0.000000000 0.000000000 0.022255797 0.093307268 0.022255797 0.093307268 0.000000000 0.000000000
15.833333 0.000000000 0.000000000 0.059914049 0.073741807 0.059914049 0.073741807 0.000000000 0.000000000
15.916667 0.000000000 0.000000000 0.085135877 0.040117587 0.085135877 0.040117587 0.000000000 0.000000000
16.000000 0.000000000 0.000000000 0.093225053 -0.000721918 0.093225053 -0.000721918 0.000000000 0.000000000
16.083333 0.000000000 0.000000000 0.082924137 -0.040653539 0.082924137 -0.040653539 0.000000000 0.000000000
16.166667 0.000000000 0.000000000 0.056594185 -0.071886078 0.056594185 -0.071886078 0.000000000 0.000000000
16.250000 0.000000000 0.000000000 0.019684369 -0.088476102 0.019684369 -0.088476102 0.000000000 0.000000000
16.333333 0.000000000 0.000000000 -0.020391253 -0.087453869 -0.020391253 -0.087453869 0.000000000 0.000000000
16.416667 0.000000000 0.000000000 -0.055739176 -0.069347124 -0.055739176 -0.069347124 0.000000000 0.000000000
16.500000 0.000000000 0.000000000 -0.079537267 -0.038012096 -0.079537267 -0.038012096 0.000000000 0.000000000
16.583333 0.000000000 0.000000000 -0.087347082 0.000182135 -0.087347082 0.000182135 0.000000000 0.000000000
16.666667 0.000000000 0.000000000 -0.077936127 0.037644442 -0.077936127 0.037644442 0.000000000 0.000000000
16.750000 0.000000000 0.000000000 -0.053458885 0.067066800 -0.053458885 0.067066800 0.000000000 0.000000000
16.833333 0.000000000 0.000000000 -0.018973367 0.082846063 -0.018973367 0.082846063 0.000000000 0.000000000
16.916667 0.000000000 0.000000000 0.018600054 0.082146559 0.018600054 0.082146559 0.000000000 0.000000000
17.000000 0.000000000 0.000000000 0.051864008 0.065402894 0.051864008 0.065402894 0.000000000 0.000000000
17.083333 0.000000000 0.000000000 0.074397033 0.036175291 0.074397033 0.036175291 0.000000000 0.000000000
17.166667 0.000000000 0.000000000 0.081989387 0.000397639 0.081989387 0.000397639 0.000000000 0.000000000
17.250000 0.000000000 0.000000000 0.073424691 -0.034823877 0.073424691 -0.034823877 0.000000000 0.000000000
17.333333 0.000000000 0.000000000 0.050663301 -0.062619036 0.050663301 -0.062619036 0.000000000 0.000000000
17.416667 0.000000000 0.000000000 0.018402544 -0.077690264 0.018402544 -0.077690264 0.000000000 0.000000000
17.500000 0.000000000 0.000000000 -0.016889068 -0.077318405 -0.016889068 -0.077318405 0.000000000 0.000000000
17.583333 0.000000000 0.000000000 -0.048265822 -0.061847392 -0.048265822 -0.061847392 0.000000000 0.000000000
17.666667 0.000000000 0.000000000 -0.069668706 -0.034562728 -0.069668706 -0.034562728 0.000000000 0.000000000
17.750000 0.000000000 0.000000000 -0.077092062 -0.000998334 -0.077092062 -0.000998334 0.000000000 0.000000000
17.833333 0.000000000 0.000000000 -0.069329018 0.032182864 -0.069329018 0.032182864 0.000000000 0.000000000
17.916667 0.000000000 0.000000000 -0.048157866 0.058508773 -0.048157866 0.058508773 0.000000000 0.000000000
18.000000 0.000000000 0.000000000 -0.017942958 0.072957532 -0.017942958 0.072957532 0.000000000 0.000000000
18.083333 0.000000000 0.000000000 0.015261748 0.072912010 0.015261748 0.072912010 0.000000000 0.000000000
18.166667 0.000000000 0.000000000 0.044922999 0.058628693 0.044922999 0.058628693 0.000000000 0.000000000
18.250000 0.000000000 0.000000000 0.065310981 0.033138053 0.065310981 0.033138053 0.000000000 0.000000000
18.333333 0.000000000 0.000000000 0.072603186 0.001605730 0.072603186 0.001605730 0.000000000 0.000000000
18.416667 0.000000000 0.000000000 0.065597353 -0.029711602 0.065597353 -0.029711602 0.000000000 0.000000000
18.500000 0.000000000 0.000000000 0.045901285 -0.054705170 0.045901285 -0.054705170 0.000000000 0.000000000
18.583333 0.000000000 0.000000000 0.017571541 -0.068603011 0.017571541 -0.068603011 0.000000000 0.000000000
18.666667 0.000000000 0.000000000 -0.013719118 -0.068878020 -0.013719118 -0.068878020 0.000000000 0.000000000
18.750000 0.000000000 0.000000000 -0.041815248 -0.055702948 -0.041815248 -0.055702948 0.000000000 0.000000000
18.833333 0.000000000 0.000000000 -0.061287180 -0.031871409 -0.061287180 -0.031871409 0.000000000 0.000000000
18.916667 0.000000000 0.000000000 -0.068477670 -0.002209312 -0.068477670 -0.002209312 0.000000000 0.000000000
19.000000 0.000000000 0.000000000 -0.062185511 0.027399986 -0.062185511 0.027399986 0.000000000 0.000000000
19.083333 0.000000000 0.000000000 -0.043859018 0.051180361 -0.043859018 0.051180361 0.000000000 0.000000000
19.166667 0.000000000 0.000000000 -0.017269862 0.064587348 -0.017269862 0.064587348 0.000000000 0.000000000
19.250000 0.000000000 0.000000000 0.012260503 0.065173884 0.012260503 0.065173884 0.000000000 0.000000000
19.333333 0.000000000 0.000000000 0.038923703 0.053032995 0.038923703 0.053032995 0.000000000 0.000000000
19.416667 0.000000000 0.000000000 0.057564740 0.030738181 0.057564740 0.030738181 0.000000000 0.000000000
19.500000 0.000000000 0.000000000 0.064676277 0.002801388 0.064676277 0.002801388 0.000000000 0.000000000
19.583333 0.000000000 0.000000000 0.059055643 -0.025237939 0.059055643 -0.025237939 0.000000000 0.000000000
19.666667 0.000000000 0.000000000 0.042002060 -0.047909223 0.042002060 -0.047909223 0.000000000 0.000000000
19.750000 0.000000000 0.000000000 0.017023163 -0.060875967 0.017023163 -0.060875967 0.000000000 0.000000000
19.833333 0.000000000 0.000000000 -0.010884055 -0.061762814 -0.010884055 -0.061762814 0.000000000 0.000000000
19.916667 0.000000000 0.000000000 -0.036230944 -0.050587219 -0.036230944 -0.050587219 0.000000000 0.000000000
20.000000 0.000000000 0.000000000 -0.054114741 -0.029717999 -0.054114741 -0.029717999 0.000000000 0.000000000
20.083333 0.000000000 0.000000000 -0.061164784 -0.003376429 -0.061164784 -0.003376429 0.000000000 0.000000000
20.166667 0.000000000 0.000000000 -0.056175220 0.023215643 -0.056175220 0.023215643 0.000000000 0.000000000
20.250000 0.000000000 0.000000000 -0.040305963 0.044869141 -0.040305963 0.044869141 0.000000000 0.000000000
20.333333 0.000000000 0.000000000 -0.016819606 0.057438439 -0.016819606 0.057438439 0.000000000 0.000000000
20.416667 0.000000000 0.000000000 0.009587146 0.058612910 0.009587146 0.058612910 0.000000000 0.000000000
20.500000 0.000000000 0.000000000 0.033720960 0.048338633 0.033720960 0.048338633 0.000000000 0.000000000
20.583333 0.000000000 0.000000000 0.050911485 0.028793943 0.050911485 0.028793943 0.000000000 0.000000000
20.666667 0.000000000 0.000000000 0.057913272 0.003930548 0.057913272 0.003930548 0.000000000 0.000000000
20.750000 0.000000000 0.000000000 0.053516193 -0.021323680 0.053516193 -0.021323680 0.000000000 0.000000000
20.833333 0.000000000 0.000000000 0.038750037 -0.042039768 0.038750037 -0.042039768 0.000000000 0.000000000
20.916667 0.000000000 0.000000000 0.016649682 -0.054247943 0.016649682 -0.054247943 0.000000000 0.000000000
21.000000 0.000000000 0.000000000 -0.008366650 -0.055696434 -0.008366650 -0.055696434 0.000000000 0.000000000
21.083333 0.000000000 0.000000000 -0.031379086 -0.046264111 -0.031379086 -0.046264111 0.000000000 0.000000000
21.166667 0.000000000 0.000000000 -0.047932110 -0.027951911 -0.047932110 -0.027951911 0.000000000 0.000000000
21.250000 0.000000000 0.000000000 -0.054895518 -0.004461120 -0.054895518 -0.004461120 0.000000000 0.000000000
21.333333 0.000000000 0.000000000 -0.051054302 0.019553111 -0.051054302 0.019553111 0.000000000 0.000000000
21.416667 0.000000000 0.000000000 -0.037316712 0.039402804 -0.037316712 0.039402804 0.000000000 0.000000000
21.500000 0.000000000 0.000000000 -0.016505740 0.051280787 -0.016505740 0.051280787 0.000000000 0.000000000
21.583333 0.000000000 0.000000000 0.007219148 0.052989195 0.007219148 0.052989195 0.000000000 0.000000000
21.666667 0.000000000 0.000000000 0.029191922 0.044343773 0.029191922 0.044343773 0.000000000 0.000000000
21.750000 0.000000000 0.000000000 0.045156255 0.027180107 0.045156255 0.027180107 0.000000000 0.000000000
21.833333 0.000000000 0.000000000 0.052088487 0.004966472 0.052088487 0.004966472 0.000000000 0.000000000
21.916667 0.000000000 0.000000000 0.048768491 -0.017895526 0.048768491 -0.017895526 0.000000000 0.000000000
22.000000 0.000000000 0.000000000 0.035991012 -0.036941787 0.035991012 -0.036941787 0.000000000 0.000000000
22.083333 0.000000000 0.000000000 0.016381624 -0.048516008 0.016381624 -0.048516008 0.000000000 0.000000000
22.166667 0.000000000 0.000000000 -0.006141078 -0.050470041 -0.006141078 -0.050470041 0.000000000 0.000000000
22.250000 0.000000000 0.000000000 -0.027147243 -0.042560468 -0.027147243 -0.042560468 0.000000000 0.000000000
22.333333 0.000000000 0.000000000 -0.042565759 -0.026468633 -0.042565759 -0.026468633 0.000000000 0.000000000
22.416667 0.000000000 0.000000000 -0.049471891 -0.005445656 -0.049471891 -0.005445656 0.000000000 0.000000000
22.500000 0.000000000 0.000000000 -0.046640436 0.016343052 -0.046640436 0.016343052 0.000000000 0.000000000
22.583333 0.000000000 0.000000000 -0.034760126 0.034641896 -0.034760126 0.034641896 0.000000000 0.000000000
22.666667 0.000000000 0.000000000 -0.016272380 0.045935016 -0.016272380 0.045935016 0.000000000 0.000000000
22.750000 0.000000000 0.000000000 0.005128837 0.048120419 0.005128837 0.048120419 0.000000000 0.000000000
22.833333 0.000000000 0.000000000 0.025233902 0.040899351 0.025233902 0.040899351 0.000000000 0.000000000
22.916667 0.000000000 0.000000000 0.040144404 0.025809155 0.040144404 0.025809155 0.000000000 0.000000000
23.000000 0.000000000 0.000000000 0.047027819 0.005898270 0.047027819 0.005898270 0.000000000 0.000000000
23.083333 0.000000000 0.000000000 0.044654135 -0.014888358 0.044654135 -0.014888358 0.000000000 0.000000000
23.166667 0.000000000 0.000000000 0.033613060 -0.032489784 0.033613060 -0.032489784 0.000000000 0.000000000
23.250000 0.000000000 0.000000000 0.016174018 -0.043521291 0.016174018 -0.043521291 0.000000000 0.000000000
23.333333 0.000000000 0.000000000 -0.004178863 -0.045924017 -0.004178863 -0.045924017 0.000000000 0.000000000
23.416667 0.000000000 0.000000000 -0.023441747 -0.039347530 -0.023441747 -0.039347530 0.000000000 0.000000000
23.500000 0.000000000 0.000000000 -0.037877679 -0.025194634 -0.037877679 -0.025194634 0.000000000 0.000000000
23.583333 0.000000000 0.000000000 -0.044740422 -0.006324319 -0.044740422 -0.006324319 0.000000000 0.000000000
23.666667 0.000000000 0.000000000 -0.042795575 0.013524635 -0.042795575 0.013524635 0.000000000 0.000000000
23.750000 0.000000000 0.000000000 -0.032540346 0.030473414 -0.032540346 0.030473414 0.000000000 0.000000000
23.833333 0.000000000 0.000000000 -0.016083331 0.041260128 -0.016083331 0.041260128 0.000000000 0.000000000
23.916667 0.000000000 0.000000000 0.003287676 0.043866450 0.003287676 0.043866450 0.000000000 0.000000000
24.000000 0.000000000 0.000000000 0.021761527 0.037893776 0.021761527 0.037893776 0.000000000 0.000000000
24.083333 0.000000000 0.000000000 0.035752582 0.024619109 0.035752582 0.024619109 0.000000000 0.000000000
24.166667 0.000000000 0.000000000 0.042595639 0.006724110 0.042595639 0.006724110 0.000000000 0.000000000
24.250000 0.000000000 0.000000000 0.041052451 -0.012245576 0.041052451 -0.012245576 0.000000000 0.000000000
24.333333 0.000000000 0.000000000 0.031533804 -0.028581924 0.031533804 -0.028581924 0.000000000 0.000000000
24.416667 0.000000000 0.000000000 0.015997747 -0.039138403 0.015997747 -0.039138403 0.000000000 0.000000000
24.500000 0.000000000 0.000000000 -0.002451922 -0.041935005 -0.002451922 -0.041935005 0.000000000 0.000000000
24.583333 0.000000000 0.000000000 -0.020184815 -0.036528279 -0.020184815 -0.036528279 0.000000000 0.000000000
24.666667 0.000000000 0.000000000 -0.033757444 -0.024077515 -0.033757444 -0.024077515 0.000000000 0.000000000
24.750000 0.000000000 0.000000000 -0.040580969 -0.007098172 -0.040580969 -0.007098172 0.000000000 0.000000000
24.833333 0.000000000 0.000000000 -0.039413924 0.011045346 -0.039413924 0.011045346 0.000000000 0.000000000
24.916667 0.000000000 0.000000000 -0.030586346 0.026805497 -0.030586346 0.026805497 0.000000000 0.000000000
25.000000 0.000000000 0.000000000 -0.015915205 0.037144385 -0.015915205 0.037144385 0.000000000 0.000000000
