! Synthetic FR4-like differential pair, 8.00 in (+) and 8.10 in (-), ~1.16 dB/in at 5 GHz, even mode 12 ps slower. Ports: P1,P2 in -> P3,P4 out. Generated for DAW_LAB.
# GHz S RI R 50
0.050000 0.000000000 0.000000000 0.000000000 0.000000000 0.897301878 -0.440980446 -0.000831230 -0.001691376
 0.000000000 0.000000000 0.000000000 0.000000000 -0.000840723 -0.001686669 0.894804873 -0.446016626
 0.897301878 -0.440980446 -0.000840723 -0.001686669 0.000000000 0.000000000 0.000000000 0.000000000
 -0.000831230 -0.001691376 0.894804873 -0.446016626 0.000000000 0.000000000 0.000000000 0.000000000
0.100000 0.000000000 0.000000000 0.000000000 0.000000000 0.610459921 -0.791073745 -0.002982292 -0.002301391
 0.000000000 0.000000000 0.000000000 0.000000000 -0.003007933 -0.002267676 0.601517021 -0.797875320
 0.610459921 -0.791073745 -0.003007933 -0.002267676 0.000000000 0.000000000 0.000000000 0.000000000
 -0.002982292 -0.002301391 0.601517021 -0.797875320 0.000000000 0.000000000 0.000000000 0.000000000
0.150000 0.000000000 0.000000000 0.000000000 0.000000000 0.198796592 -0.978272768 -0.005532061 -0.001124180
 0.000000000 0.000000000 0.000000000 0.000000000 -0.005550038 -0.001030687 0.182263467 -0.981451807
 0.198796592 -0.978272768 -0.005550038 -0.001030687 0.000000000 0.000000000 0.000000000 0.000000000
 -0.005532061 -0.001124180 0.182263467 -0.981451807 0.000000000 0.000000000 0.000000000 0.000000000
0.200000 0.000000000 0.000000000 0.000000000 0.000000000 -0.252665833 -0.964373944 -0.007271346 0.001905092
 0.000000000 0.000000000 0.000000000 0.000000000 -0.007226222 0.002067971 -0.274267967 -0.958389349
 -0.252665833 -0.964373944 -0.007226222 0.002067971 0.000000000 0.000000000 0.000000000 0.000000000
 -0.007271346 0.001905092 -0.274267967 -0.958389349 0.000000000 0.000000000 0.000000000 0.000000000
0.250000 0.000000000 0.000000000 0.000000000 0.000000000 -0.650907621 -0.752825161 -0.007095420 0.006134841
 0.000000000 0.000000000 0.000000000 0.000000000 -0.006919546 0.006331194 -0.671740618 -0.734164934
 -0.650907621 -0.752825161 -0.006919546 0.006331194 0.000000000 0.000000000 0.000000000 0.000000000
 -0.007095420 0.006134841 -0.671740618 -0.734164934 0.000000000 0.000000000 0.000000000 0.000000000
0.300000 0.000000000 0.000000000 0.000000000 0.000000000 -0.914226960 -0.387874198 -0.004386941 0.010340104
 0.000000000 0.000000000 0.000000000 0.000000000 -0.004035253 0.010480670 -0.926655168 -0.356779477
 -0.914226960 -0.387874198 -0.004035253 0.010480670 0.000000000 0.000000000 0.000000000 0.000000000
 -0.004386941 0.010340104 -0.926655168 -0.356779477 0.000000000 0.000000000 0.000000000 0.000000000
0.350000 0.000000000 0.000000000 0.000000000 0.000000000 -0.989122768 0.054772010 0.000722742 0.013051925
 0.000000000 0.000000000 0.000000000 0.000000000 0.001235254 0.013010932 -0.986016143 0.093612101
 -0.989122768 0.054772010 0.001235254 0.013010932 0.000000000 0.000000000 0.000000000 0.000000000
 0.000722742 0.013051925 -0.986016143 0.093612101 0.000000000 0.000000000 0.000000000 0.000000000
0.400000 0.000000000 0.000000000 0.000000000 0.000000000 -0.861228377 0.483785072 0.007295860 0.012988002
 0.000000000 0.000000000 0.000000000 0.000000000 0.007870177 0.012643905 -0.838411405 0.521867749
 -0.861228377 0.483785072 0.007870177 0.012643905 0.000000000 0.000000000 0.000000000 0.000000000
 0.007295860 0.012988002 -0.838411405 0.521867749 0.000000000 0.000000000 0.000000000 0.000000000
0.450000 0.000000000 0.000000000 0.000000000 0.000000000 -0.558047604 0.811205422 0.013763096 0.009467963
 0.000000000 0.000000000 0.000000000 0.000000000 0.014219587 0.008757531 -0.516174290 0.838111276
 -0.558047604 0.811205422 0.014219587 0.008757531 0.000000000 0.000000000 0.000000000 0.000000000
 0.013763096 0.009467963 -0.516174290 0.838111276 0.000000000 0.000000000 0.000000000 0.000000000
0.500000 0.000000000 0.000000000 0.000000000 0.000000000 -0.142978217 0.970602298 0.018297589 0.002695395
 0.000000000 0.000000000 0.000000000 0.000000000 0.018412983 0.001663262 -0.088228343 0.976723387
 -0.142978217 0.970602298 0.018412983 0.001663262 0.000000000 0.000000000 0.000000000 0.000000000
 0.018297589 0.002695395 -0.088228343 0.976723387 0.000000000 0.000000000 0.000000000 0.000000000
0.550000 0.000000000 0.000000000 0.000000000 0.000000000 0.298063518 0.930625408 0.019298829 -0.006181087
 0.000000000 0.000000000 0.000000000 0.000000000 0.018871686 -0.007357327 0.354784007 0.910027773
 0.298063518 0.930625408 0.018871686 -0.007357327 0.000000000 0.000000000 0.000000000 0.000000000
 0.019298829 -0.006181087 0.354784007 0.910027773 0.000000000 0.000000000 0.000000000 0.000000000
0.600000 0.000000000 0.000000000 0.000000000 0.000000000 0.674567404 0.701167749 0.015862746 -0.015260958
 0.000000000 0.000000000 0.000000000 0.000000000 0.014791180 -0.016285378 0.719848971 0.653802213
 0.674567404 0.701167749 0.014791180 -0.016285378 0.000000000 0.000000000 0.000000000 0.000000000
 0.015862746 -0.015260958 0.719848971 0.653802213 0.000000000 0.000000000 0.000000000 0.000000000
0.650000 0.000000000 0.000000000 0.000000000 0.000000000 0.910130806 0.330930510 0.008110885 -0.022306695
 0.000000000 0.000000000 0.000000000 0.000000000 0.006458767 -0.022824071 0.931240174 0.263522822
 0.910130806 0.330930510 0.006458767 -0.022824071 0.000000000 0.000000000 0.000000000 0.000000000
 0.008110885 -0.022306695 0.931240174 0.263522822 0.000000000 0.000000000 0.000000000 0.000000000
0.700000 0.000000000 0.000000000 0.000000000 0.000000000 0.958044110 -0.103011308 -0.002719036 -0.025288059
 0.000000000 0.000000000 0.000000000 0.000000000 -0.004692006 -0.024978165 0.946303691 -0.177757766
 0.958044110 -0.103011308 -0.004692006 -0.024978165 0.000000000 0.000000000 0.000000000 0.000000000
 -0.002719036 -0.025288059 0.946303691 -0.177757766 0.000000000 0.000000000 0.000000000 0.000000000
0.750000 0.000000000 0.000000000 0.000000000 0.000000000 0.810563262 -0.511383765 -0.014462890 -0.022924245
 0.000000000 0.000000000 0.000000000 0.000000000 -0.016324942 -0.021609108 0.764062194 -0.577222859
 0.810563262 -0.511383765 -0.016324942 -0.021609108 0.000000000 0.000000000 0.000000000 0.000000000
 -0.014462890 -0.022924245 0.764062194 -0.577222859 0.000000000 0.000000000 0.000000000 0.000000000
0.800000 0.000000000 0.000000000 0.000000000 0.000000000 0.500028216 -0.811204866 -0.024472783 -0.015085070
 0.000000000 0.000000000 0.000000000 0.000000000 -0.025701751 -0.012818734 0.424905474 -0.851941760
 0.500028216 -0.811204866 -0.025701751 -0.012818734 0.000000000 0.000000000 0.000000000 0.000000000
 -0.024472783 -0.015085070 0.424905474 -0.851941760 0.000000000 0.000000000 0.000000000 0.000000000
0.850000 0.000000000 0.000000000 0.000000000 0.000000000 0.091706881 -0.942733408 -0.030219525 -0.002939684
 0.000000000 0.000000000 0.000000000 0.000000000 -0.030329623 -0.000049895 0.001556541 -0.946168063
 0.091706881 -0.942733408 -0.030329623 -0.000049895 0.000000000 0.000000000 0.000000000 0.000000000
 -0.030219525 -0.002939684 0.001556541 -0.946168063 0.000000000 0.000000000 0.000000000 0.000000000
0.900000 0.000000000 0.000000000 0.000000000 0.000000000 -0.330036299 -0.881395436 -0.029916523 0.011202167
 0.000000000 0.000000000 0.000000000 0.000000000 -0.028601771 0.014141890 -0.416645909 -0.842660425
 -0.330036299 -0.881395436 -0.028601771 0.014141890 0.000000000 0.000000000 0.000000000 0.000000000
 -0.029916523 0.011202167 -0.416645909 -0.842660425 0.000000000 0.000000000 0.000000000 0.000000000
0.950000 0.000000000 0.000000000 0.000000000 0.000000000 -0.679289742 -0.642304380 -0.023013430 0.024338596
 0.000000000 0.000000000 0.000000000 0.000000000 -0.020269715 0.026611355 -0.742722396 -0.565727347
 -0.679289742 -0.642304380 -0.020269715 0.026611355 0.000000000 0.000000000 0.000000000 0.000000000
 -0.023013430 0.024338596 -0.742722396 -0.565727347 0.000000000 0.000000000 0.000000000 0.000000000
1.000000 0.000000000 0.000000000 0.000000000 0.000000000 -0.886184834 -0.276563866 -0.010431154 0.033424217
 0.000000000 0.000000000 0.000000000 0.000000000 -0.006618977 0.034331014 -0.910226977 -0.175490631
 -0.886184834 -0.276563866 -0.006618977 0.034331014 0.000000000 0.000000000 0.000000000 0.000000000
 -0.010431154 0.033424217 -0.910226977 -0.175490631 0.000000000 0.000000000 0.000000000 0.000000000
1.050000 0.000000000 0.000000000 0.000000000 0.000000000 -0.910906255 0.139745226 0.005534575 0.036076219
 0.000000000 0.000000000 0.000000000 0.000000000 0.009713887 0.035121717 -0.886805567 0.245270729
 -0.910906255 0.139745226 0.009713887 0.035121717 0.000000000 0.000000000 0.000000000 0.000000000
 0.005534575 0.036076219 -0.886805567 0.245270729 0.000000000 0.000000000 0.000000000 0.000000000
1.100000 0.000000000 0.000000000 0.000000000 0.000000000 -0.751307864 0.521499219 0.021638468 0.031173875
 0.000000000 0.000000000 0.000000000 0.000000000 0.025260527 0.028230467 -0.680370086 0.608792869
 -0.751307864 0.521499219 0.025260527 0.028230467 0.000000000 0.000000000 0.000000000 0.000000000
 0.021638468 0.031173875 -0.680370086 0.608792869 0.000000000 0.000000000 0.000000000 0.000000000
1.150000 0.000000000 0.000000000 0.000000000 0.000000000 -0.442691486 0.792026082 0.034359011 0.019204471
 0.000000000 0.000000000 0.000000000 0.000000000 0.036471287 0.014607841 -0.336732360 0.840717172
 -0.442691486 0.792026082 0.036471287 0.014607841 0.000000000 0.000000000 0.000000000 0.000000000
 0.034359011 0.019204471 -0.336732360 0.840717172 0.000000000 0.000000000 0.000000000 0.000000000
1.200000 0.000000000 0.000000000 0.000000000 0.000000000 -0.049946893 0.898545610 0.040676999 0.002261087
 0.000000000 0.000000000 0.000000000 0.000000000 0.040531290 -0.003197697 0.070636400 0.895326934
 -0.049946893 0.898545610 0.040531290 -0.003197697 0.000000000 0.000000000 0.000000000 0.000000000
 0.040676999 0.002261087 0.070636400 0.895326934 0.000000000 0.000000000 0.000000000 0.000000000
1.250000 0.000000000 0.000000000 0.000000000 0.000000000 0.346184507 0.822438999 0.038785239 -0.016325647
 0.000000000 0.000000000 0.000000000 0.000000000 0.036053144 -0.021523926 0.456413752 0.764505073
 0.346184507 0.822438999 0.036053144 -0.021523926 0.000000000 0.000000000 0.000000000 0.000000000
 0.038785239 -0.016325647 0.456413752 0.764505073 0.000000000 0.000000000 0.000000000 0.000000000
1.300000 0.000000000 0.000000000 0.000000000 0.000000000 0.665793835 0.582359310 0.028563630 -0.032655936
 0.000000000 0.000000000 0.000000000 0.000000000 0.023478075 -0.036363200 0.741378051 0.478674305
 0.665793835 0.582359310 0.023478075 -0.036363200 0.000000000 0.000000000 0.000000000 0.000000000
 0.028563630 -0.032655936 0.741378051 0.478674305 0.000000000 0.000000000 0.000000000 0.000000000
1.350000 0.000000000 0.000000000 0.000000000 0.000000000 0.845971252 0.229704112 0.011700619 -0.043091904
 0.000000000 0.000000000 0.000000000 0.000000000 0.005078526 -0.044250170 0.868710075 0.099700551
 0.845971252 0.229704112 0.005078526 -0.044250170 0.000000000 0.000000000 0.000000000 0.000000000
 0.011700619 -0.043091904 0.868710075 0.099700551 0.000000000 0.000000000 0.000000000 0.000000000
1.400000 0.000000000 0.000000000 0.000000000 0.000000000 0.853175848 -0.162457177 -0.008582258 -0.045071418
 0.000000000 0.000000000 0.000000000 0.000000000 -0.015456297 -0.043069728 0.815284999 -0.292578754
 0.853175848 -0.162457177 -0.015456297 -0.043069728 0.000000000 0.000000000 0.000000000 0.000000000
 -0.008582258 -0.045071418 0.815284999 -0.292578754 0.000000000 0.000000000 0.000000000 0.000000000
1.450000 0.000000000 0.000000000 0.000000000 0.000000000 0.689382743 -0.514600361 -0.028158018 -0.037721800
 0.000000000 0.000000000 0.000000000 0.000000000 -0.033774803 -0.032596907 0.595723029 -0.617249622
 0.689382743 -0.514600361 -0.033774803 -0.032596907 0.000000000 0.000000000 0.000000000 0.000000000
 -0.028158018 -0.037721800 0.595723029 -0.617249622 0.000000000 0.000000000 0.000000000 0.000000000
1.500000 0.000000000 0.000000000 0.000000000 0.000000000 0.390907701 -0.756922709 -0.042848654 -0.022128902
 0.000000000 0.000000000 0.000000000 0.000000000 -0.045799453 -0.014635228 0.258531719 -0.809048666
 0.390907701 -0.756922709 -0.045799453 -0.014635228 0.000000000 0.000000000 0.000000000 0.000000000
 -0.042848654 -0.022128902 0.258531719 -0.809048666 0.000000000 0.000000000 0.000000000 0.000000000
1.550000 0.000000000 0.000000000 0.000000000 0.000000000 0.020325135 -0.843178893 -0.049326152 -0.001189025
 0.000000000 0.000000000 0.000000000 0.000000000 -0.048640512 0.007292934 -0.124665067 -0.831458598
 0.020325135 -0.843178893 -0.048640512 0.007292934 0.000000000 0.000000000 0.000000000 0.000000000
 -0.049326152 -0.001189025 -0.124665067 -0.831458598 0.000000000 0.000000000 0.000000000 0.000000000
1.600000 0.000000000 0.000000000 0.000000000 0.000000000 -0.346714601 -0.759437321 -0.045863816 0.020938732
 0.000000000 0.000000000 0.000000000 0.000000000 -0.041281044 0.028650345 -0.474407558 -0.683553365
 -0.346714601 -0.759437321 -0.041281044 0.028650345 0.000000000 0.000000000 0.000000000 0.000000000
 -0.045863816 0.020938732 -0.474407558 -0.683553365 0.000000000 0.000000000 0.000000000 0.000000000
1.650000 0.000000000 0.000000000 0.000000000 0.000000000 -0.636978010 -0.526118565 -0.032768709 0.039673466
 0.000000000 0.000000000 0.000000000 0.000000000 -0.024872447 0.044839172 -0.719916092 -0.399339999
 -0.636978010 -0.526118565 -0.024872447 0.044839172 0.000000000 0.000000000 0.000000000 0.000000000
 -0.032768709 0.039673466 -0.719916092 -0.399339999 0.000000000 0.000000000 0.000000000 0.000000000
1.700000 0.000000000 0.000000000 0.000000000 0.000000000 -0.794269402 -0.193079548 -0.012391146 0.050973334
 0.000000000 0.000000000 0.000000000 0.000000000 -0.002562611 0.052201284 -0.813403387 -0.039930745
 -0.794269402 -0.193079548 -0.002562611 0.052201284 0.000000000 0.000000000 0.000000000 0.000000000
 -0.012391146 0.050973334 -0.813403387 -0.039930745 0.000000000 0.000000000 0.000000000 0.000000000
1.750000 0.000000000 0.000000000 0.000000000 0.000000000 -0.790261804 0.171083480 0.011303371 0.052212067
 0.000000000 0.000000000 0.000000000 0.000000000 0.021119054 0.048844734 -0.739295137 0.319649894
 -0.790261804 0.171083480 0.021119054 0.048844734 0.000000000 0.000000000 0.000000000 0.000000000
 0.011303371 0.052212067 -0.739295137 0.319649894 0.000000000 0.000000000 0.000000000 0.000000000
1.800000 0.000000000 0.000000000 0.000000000 0.000000000 -0.629464863 0.493209039 0.033519843 0.042780164
 0.000000000 0.000000000 0.000000000 0.000000000 0.041196596 0.035109747 -0.516602797 0.606164333
 -0.629464863 0.493209039 0.041196596 0.035109747 0.000000000 0.000000000 0.000000000 0.000000000
 0.033519843 0.042780164 -0.516602797 0.606164333 0.000000000 0.000000000 0.000000000 0.000000000
1.850000 0.000000000 0.000000000 0.000000000 0.000000000 -0.347494533 0.710284442 0.049618097 0.024274807
 0.000000000 0.000000000 0.000000000 0.000000000 0.053305922 0.013562826 -0.194152235 0.763075760
 -0.347494533 0.710284442 0.053305922 0.013562826 0.000000000 0.000000000 0.000000000 0.000000000
 0.049618097 0.024274807 -0.194152235 0.763075760 0.000000000 0.000000000 0.000000000 0.000000000
1.900000 0.000000000 0.000000000 0.000000000 0.000000000 -0.003177550 0.781739671 0.056090653 0.000227993
 0.000000000 0.000000000 0.000000000 0.000000000 0.054648730 -0.011491094 0.160152245 0.761643480
 -0.003177550 0.781739671 0.054648730 -0.011491094 0.000000000 0.000000000 0.000000000 0.000000000
 0.056090653 0.000227993 0.160152245 0.761643480 0.000000000 0.000000000 0.000000000 0.000000000
1.950000 0.000000000 0.000000000 0.000000000 0.000000000 0.333757260 0.696933045 0.051326318 -0.024579881
 0.000000000 0.000000000 0.000000000 0.000000000 0.044632414 -0.034883274 0.473661603 0.606040048
 0.333757260 0.696933045 0.044632414 -0.034883274 0.000000000 0.000000000 0.000000000 0.000000000
 0.051326318 -0.024579881 0.473661603 0.606040048 0.000000000 0.000000000 0.000000000 0.000000000
2.000000 0.000000000 0.000000000 0.000000000 0.000000000 0.596818877 0.476473347 0.035993476 -0.045084549
 0.000000000 0.000000000 0.000000000 0.000000000 0.025050994 -0.051661433 0.683882144 0.331619287
 0.596818877 0.476473347 0.025050994 -0.051661433 0.000000000 0.000000000 0.000000000 0.000000000
 0.035993476 -0.045084549 0.683882144 0.331619287 0.000000000 0.000000000 0.000000000 0.000000000
2.050000 0.000000000 0.000000000 0.000000000 0.000000000 0.735856010 0.167294216 0.012954831 -0.056982784
 0.000000000 0.000000000 0.000000000 0.000000000 -0.000240827 -0.058146830 0.750888101 -0.003109953
 0.735856010 0.167294216 -0.000240827 -0.058146830 0.000000000 0.000000000 0.000000000 0.000000000
 0.012954831 -0.056982784 0.750888101 -0.003109953 0.000000000 0.000000000 0.000000000 0.000000000
2.100000 0.000000000 0.000000000 0.000000000 0.000000000 0.726546637 -0.167356103 -0.013277020 -0.057639813
 0.000000000 0.000000000 0.000000000 0.000000000 -0.026099542 -0.052740806 0.664794926 -0.328983278
 0.726546637 -0.167356103 -0.026099542 -0.052740806 0.000000000 0.000000000 0.000000000 0.000000000
 -0.013277020 -0.057639813 0.664794926 -0.328983278 0.000000000 0.000000000 0.000000000 0.000000000
2.150000 0.000000000 0.000000000 0.000000000 0.000000000 0.574498988 -0.460871422 -0.037437071 -0.046667158
 0.000000000 0.000000000 0.000000000 0.000000000 -0.047152933 -0.036304099 0.446923895 -0.580479148
 0.574498988 -0.460871422 -0.047152933 -0.036304099 0.000000000 0.000000000 0.000000000 0.000000000
 -0.037437071 -0.046667158 0.446923895 -0.580479148 0.000000000 0.000000000 0.000000000 0.000000000
2.200000 0.000000000 0.000000000 0.000000000 0.000000000 0.313313258 -0.656534455 -0.054576882 -0.026045336
 0.000000000 0.000000000 0.000000000 0.000000000 -0.058926741 -0.012021578 0.144613987 -0.708861236
 0.313313258 -0.656534455 -0.058926741 -0.012021578 0.000000000 0.000000000 0.000000000 0.000000000
 -0.054576882 -0.026045336 0.144613987 -0.708861236 0.000000000 0.000000000 0.000000000 0.000000000
2.250000 0.000000000 0.000000000 0.000000000 0.000000000 -0.002829155 -0.718424137 -0.061085464 0.000240555
 0.000000000 0.000000000 0.000000000 0.000000000 -0.058799494 0.015226044 -0.179073006 -0.691538920
 -0.002829155 -0.718424137 -0.058799494 0.015226044 0.000000000 0.000000000 0.000000000 0.000000000
 -0.061085464 0.000240555 -0.179073006 -0.691538920 0.000000000 0.000000000 0.000000000 0.000000000
2.300000 0.000000000 0.000000000 0.000000000 0.000000000 -0.310417361 -0.637900471 -0.055450079 0.026983312
 0.000000000 0.000000000 0.000000000 0.000000000 -0.046581053 0.039856773 -0.458514296 -0.535870751
 -0.310417361 -0.637900471 -0.046581053 0.039856773 0.000000000 0.000000000 0.000000000 0.000000000
 -0.055450079 0.026983312 -0.458514296 -0.535870751 0.000000000 0.000000000 0.000000000 0.000000000
2.350000 0.000000000 0.000000000 0.000000000 0.000000000 -0.549365956 -0.434524542 -0.038596826 0.048797663
 0.000000000 0.000000000 0.000000000 0.000000000 -0.024588381 0.056742425 -0.638808382 -0.276816936
 -0.549365956 -0.434524542 -0.024588381 0.056742425 0.000000000 0.000000000 0.000000000 0.000000000
 -0.038596826 0.048797663 -0.638808382 -0.276816936 0.000000000 0.000000000 0.000000000 0.000000000
2.400000 0.000000000 0.000000000 0.000000000 0.000000000 -0.674714811 -0.151405698 -0.013736368 0.061213886
 0.000000000 0.000000000 0.000000000 0.000000000 0.002802713 0.062282840 -0.686497090 0.030892211
 -0.674714811 -0.151405698 0.002802713 0.062282840 0.000000000 0.000000000 0.000000000 0.000000000
 -0.013736368 0.061213886 -0.686497090 0.030892211 0.000000000 0.000000000 0.000000000 0.000000000
2.450000 0.000000000 0.000000000 0.000000000 0.000000000 -0.665006495 0.153934628 0.014258406 0.061597137
 0.000000000 0.000000000 0.000000000 0.000000000 0.030040765 0.055172992 -0.595651033 0.324321958
 -0.665006495 0.153934628 0.030040765 0.055172992 0.000000000 0.000000000 0.000000000 0.000000000
 0.014258406 0.061597137 -0.595651033 0.324321958 0.000000000 0.000000000 0.000000000 0.000000000
2.500000 0.000000000 0.000000000 0.000000000 0.000000000 -0.525801546 0.421247553 0.039819618 0.049702880
 0.000000000 0.000000000 0.000000000 0.000000000 0.051535627 0.036699848 -0.388243837 0.545189991
 -0.525801546 0.421247553 0.051535627 0.036699848 0.000000000 0.000000000 0.000000000 0.000000000
 0.039819618 0.049702880 -0.388243837 0.545189991 0.000000000 0.000000000 0.000000000 0.000000000
2.550000 0.000000000 0.000000000 0.000000000 0.000000000 -0.287796869 0.599418621 0.057801920 0.027752244
 0.000000000 0.000000000 0.000000000 0.000000000 0.062813873 0.010503485 -0.108923446 0.651393677
 -0.287796869 0.599418621 0.062813873 0.010503485 0.000000000 0.000000000 0.000000000 0.000000000
 0.057801920 0.027752244 -0.108923446 0.651393677 0.000000000 0.000000000 0.000000000 0.000000000
2.600000 0.000000000 0.000000000 0.000000000 0.000000000 -0.000087676 0.656179681 0.064523987 0.000008621
 0.000000000 0.000000000 0.000000000 0.000000000 0.061452257 -0.018151377 0.184591268 0.624941583
 -0.000087676 0.656179681 0.061452257 -0.018151377 0.000000000 0.000000000 0.000000000 0.000000000
 0.064523987 0.000008621 0.184591268 0.624941583 0.000000000 0.000000000 0.000000000 0.000000000
2.650000 0.000000000 0.000000000 0.000000000 0.000000000 0.279954492 0.583841683 0.058522153 -0.028061613
 0.000000000 0.000000000 0.000000000 0.000000000 0.047594158 -0.043445022 0.433425865 0.474819391
 0.279954492 0.583841683 0.047594158 -0.043445022 0.000000000 0.000000000 0.000000000 0.000000000
 0.058522153 -0.028061613 0.433425865 0.474819391 0.000000000 0.000000000 0.000000000 0.000000000
2.700000 0.000000000 0.000000000 0.000000000 0.000000000 0.498103438 0.400057786 0.040862141 -0.050876582
 0.000000000 0.000000000 0.000000000 0.000000000 0.023939994 -0.060193752 0.589322510 0.234382754
 0.498103438 0.400057786 0.023939994 -0.060193752 0.000000000 0.000000000 0.000000000 0.000000000
 0.040862141 -0.050876582 0.589322510 0.234382754 0.000000000 0.000000000 0.000000000 0.000000000
2.750000 0.000000000 0.000000000 0.000000000 0.000000000 0.613731911 0.143628706 0.014943933 -0.063856096
 0.000000000 0.000000000 0.000000000 0.000000000 -0.004788597 -0.064916722 0.623925769 -0.046024030
 0.613731911 0.143628706 -0.004788597 -0.064916722 0.000000000 0.000000000 0.000000000 0.000000000
 0.014943933 -0.063856096 0.623925769 -0.046024030 0.000000000 0.000000000 0.000000000 0.000000000
2.800000 0.000000000 0.000000000 0.000000000 0.000000000 0.607294354 -0.133672595 -0.014162788 -0.064343640
 0.000000000 0.000000000 0.000000000 0.000000000 -0.032802197 -0.056558315 0.533814144 -0.309596861
 0.607294354 -0.133672595 -0.032802197 -0.056558315 0.000000000 0.000000000 0.000000000 0.000000000
 -0.014162788 -0.064343640 0.533814144 -0.309596861 0.000000000 0.000000000 0.000000000 0.000000000
2.850000 0.000000000 0.000000000 0.000000000 0.000000000 0.483481363 -0.377538684 -0.040720500 -0.052147246
 0.000000000 0.000000000 0.000000000 0.000000000 -0.054419730 -0.036716591 0.340416582 -0.504550613
 0.483481363 -0.377538684 -0.054419730 -0.036716591 0.000000000 0.000000000 0.000000000 0.000000000
 -0.040720500 -0.052147246 0.340416582 -0.504550613 0.000000000 0.000000000 0.000000000 0.000000000
2.900000 0.000000000 0.000000000 0.000000000 0.000000000 0.269574947 -0.541728534 -0.059462884 -0.029589920
 0.000000000 0.000000000 0.000000000 0.000000000 -0.065226441 -0.009329944 0.084999190 -0.594236639
 0.269574947 -0.541728534 -0.065226441 -0.009329944 0.000000000 0.000000000 0.000000000 0.000000000
 -0.059462884 -0.029589920 0.084999190 -0.594236639 0.000000000 0.000000000 0.000000000 0.000000000
2.950000 0.000000000 0.000000000 0.000000000 0.000000000 0.009480281 -0.596771717 -0.066643382 -0.001058693
 0.000000000 0.000000000 0.000000000 0.000000000 -0.062976645 0.020114631 -0.180120555 -0.563937174
 0.009480281 -0.596771717 -0.062976645 0.020114631 0.000000000 0.000000000 0.000000000 0.000000000
 -0.066643382 -0.001058693 -0.180120555 -0.563937174 0.000000000 0.000000000 0.000000000 0.000000000
3.000000 0.000000000 0.000000000 0.000000000 0.000000000 -0.245269264 -0.535153436 -0.060783811 0.027858180
 0.000000000 0.000000000 0.000000000 0.000000000 -0.048056637 0.045690282 -0.402266836 -0.423100720
 -0.245269264 -0.535153436 -0.048056637 0.045690282 0.000000000 0.000000000 0.000000000 0.000000000
 -0.060783811 0.027858180 -0.402266836 -0.423100720 0.000000000 0.000000000 0.000000000 0.000000000
3.050000 0.000000000 0.000000000 0.000000000 0.000000000 -0.445695807 -0.372093670 -0.042973734 0.051474171
 0.000000000 0.000000000 0.000000000 0.000000000 -0.023413327 0.062230064 -0.538827112 -0.202727341
 -0.445695807 -0.372093670 -0.023413327 0.062230064 0.000000000 0.000000000 0.000000000 0.000000000
 -0.042973734 0.051474171 -0.538827112 -0.202727341 0.000000000 0.000000000 0.000000000 0.000000000
3.100000 0.000000000 0.000000000 0.000000000 0.000000000 -0.554744391 -0.141914806 -0.016661114 0.065128226
 0.000000000 0.000000000 0.000000000 0.000000000 0.006036655 0.066373606 -0.565352196 0.051418572
 -0.554744391 -0.141914806 0.006036655 0.066373606 0.000000000 0.000000000 0.000000000 0.000000000
 -0.016661114 0.065128226 -0.565352196 0.051418572 0.000000000 0.000000000 0.000000000 0.000000000
3.150000 0.000000000 0.000000000 0.000000000 0.000000000 -0.554054928 0.109156770 0.013023886 0.066106281
 0.000000000 0.000000000 0.000000000 0.000000000 0.034396926 0.057248266 -0.479813469 0.288290103
 -0.554054928 0.109156770 0.034396926 0.057248266 0.000000000 0.000000000 0.000000000 0.000000000
 0.013023886 0.066106281 -0.479813469 0.288290103 0.000000000 0.000000000 0.000000000 0.000000000
3.200000 0.000000000 0.000000000 0.000000000 0.000000000 -0.446920060 0.332251579 0.040277466 0.054178246
 0.000000000 0.000000000 0.000000000 0.000000000 0.055979148 0.036647276 -0.302305888 0.461775828
 -0.446920060 0.332251579 0.055979148 0.036647276 0.000000000 0.000000000 0.000000000 0.000000000
 0.040277466 0.054178246 -0.302305888 0.461775828 0.000000000 0.000000000 0.000000000 0.000000000
3.250000 0.000000000 0.000000000 0.000000000 0.000000000 -0.256985628 0.485331332 0.059763169 0.031644929
 0.000000000 0.000000000 0.000000000 0.000000000 0.066447981 0.008669794 -0.070406616 0.539618098
 -0.256985628 0.485331332 0.066447981 0.008669794 0.000000000 0.000000000 0.000000000 0.000000000
 0.059763169 0.031644929 -0.070406616 0.539618098 0.000000000 0.000000000 0.000000000 0.000000000
3.300000 0.000000000 0.000000000 0.000000000 0.000000000 -0.023083649 0.541049509 0.067659804 0.002886677
 0.000000000 0.000000000 0.000000000 0.000000000 0.063692093 -0.021103137 0.168753692 0.509321247
 -0.023083649 0.541049509 0.063692093 -0.021103137 0.000000000 0.000000000 0.000000000 0.000000000
 0.067659804 0.002886677 0.168753692 0.509321247 0.000000000 0.000000000 0.000000000 0.000000000
3.350000 0.000000000 0.000000000 0.000000000 0.000000000 0.208683404 0.491543069 0.062410130 -0.026496068
 0.000000000 0.000000000 0.000000000 0.000000000 0.048246408 -0.046729289 0.368040543 0.379989393
 0.208683404 0.491543069 0.048246408 -0.046729289 0.000000000 0.000000000 0.000000000 0.000000000
 0.062410130 -0.026496068 0.368040543 0.379989393 0.000000000 0.000000000 0.000000000 0.000000000
3.400000 0.000000000 0.000000000 0.000000000 0.000000000 0.393999349 0.349337933 0.045023923 -0.050780046
 0.000000000 0.000000000 0.000000000 0.000000000 0.023182099 -0.063096112 0.489558973 0.179868523
 0.393999349 0.349337933 0.023182099 -0.063096112 0.000000000 0.000000000 0.000000000 0.000000000
 0.045023923 -0.050780046 0.489558973 0.179868523 0.000000000 0.000000000 0.000000000 0.000000000
3.450000 0.000000000 0.000000000 0.000000000 0.000000000 0.498760643 0.144322761 0.018877462 -0.065238048
 0.000000000 0.000000000 0.000000000 0.000000000 -0.006511624 -0.066942228 0.511789513 -0.049782942
 0.498760643 0.144322761 -0.006511624 -0.066942228 0.000000000 0.000000000 0.000000000 0.000000000
 0.018877462 -0.065238048 0.511789513 -0.049782942 0.000000000 0.000000000 0.000000000 0.000000000
3.500000 0.000000000 0.000000000 0.000000000 0.000000000 0.505281620 -0.082500994 -0.010949366 -0.067059962
 0.000000000 0.000000000 0.000000000 0.000000000 -0.034927866 -0.057505357 0.433289836 -0.263173558
 0.505281620 -0.082500994 -0.034927866 -0.057505357 0.000000000 0.000000000 0.000000000 0.000000000
 -0.010949366 -0.067059962 0.433289836 -0.263173558 0.000000000 0.000000000 0.000000000 0.000000000
3.550000 0.000000000 0.000000000 0.000000000 0.000000000 0.415166174 -0.287192943 -0.038666691 -0.055896576
 0.000000000 0.000000000 0.000000000 0.000000000 -0.056422502 -0.036668562 0.272352041 -0.419072440
 0.415166174 -0.287192943 -0.056422502 -0.036668562 0.000000000 0.000000000 0.000000000 0.000000000
 -0.038666691 -0.055896576 0.272352041 -0.419072440 0.000000000 0.000000000 0.000000000 0.000000000
3.600000 0.000000000 0.000000000 0.000000000 0.000000000 0.248407229 -0.431348591 -0.058903344 -0.033921559
 0.000000000 0.000000000 0.000000000 0.000000000 -0.066737833 -0.008577957 0.062816294 -0.488720470
 0.248407229 -0.431348591 -0.066737833 -0.008577957 0.000000000 0.000000000 0.000000000 0.000000000
 -0.058903344 -0.033921559 0.062816294 -0.488720470 0.000000000 0.000000000 0.000000000 0.000000000
3.650000 0.000000000 0.000000000 0.000000000 0.000000000 0.039009244 -0.489249716 -0.067749759 -0.005401877
 0.000000000 0.000000000 0.000000000 0.000000000 -0.063845377 0.021189087 -0.153015374 -0.461054518
 0.039009244 -0.489249716 -0.063845377 0.021189087 0.000000000 0.000000000 0.000000000 0.000000000
 -0.067749759 -0.005401877 -0.153015374 -0.461054518 0.000000000 0.000000000 0.000000000 0.000000000
3.700000 0.000000000 0.000000000 0.000000000 0.000000000 -0.171918884 -0.452371901 -0.063512315 0.024137145
 0.000000000 0.000000000 0.000000000 0.000000000 -0.048341281 0.046736989 -0.332888201 -0.344314908
 -0.171918884 -0.452371901 -0.048341281 0.046736989 0.000000000 0.000000000 0.000000000 0.000000000
 -0.063512315 0.024137145 -0.332888201 -0.344314908 0.000000000 0.000000000 0.000000000 0.000000000
3.750000 0.000000000 0.000000000 0.000000000 0.000000000 -0.344203860 -0.330477949 -0.047033977 0.048987464
 0.000000000 0.000000000 0.000000000 0.000000000 -0.023318185 0.063023032 -0.442822904 -0.163842107
 -0.344203860 -0.330477949 -0.023318185 0.063023032 0.000000000 0.000000000 0.000000000 0.000000000
 -0.047033977 0.048987464 -0.442822904 -0.163842107 0.000000000 0.000000000 0.000000000 0.000000000
3.800000 0.000000000 0.000000000 0.000000000 0.000000000 -0.446215934 -0.149200627 -0.021521404 0.064364297
 0.000000000 0.000000000 0.000000000 0.000000000 0.006257850 0.066853306 -0.463471393 0.043383559
 -0.446215934 -0.149200627 0.006257850 0.066853306 0.000000000 0.000000000 0.000000000 0.000000000
 -0.021521404 0.064364297 -0.463471393 0.043383559 0.000000000 0.000000000 0.000000000 0.000000000
3.850000 0.000000000 0.000000000 0.000000000 0.000000000 -0.460614177 0.055312111 0.008084940 0.067327712
 0.000000000 0.000000000 0.000000000 0.000000000 0.034538544 0.057506860 -0.393426041 0.236291156
 -0.460614177 0.055312111 0.034538544 0.057506860 0.000000000 0.000000000 0.000000000 0.000000000
 0.008084940 0.067327712 -0.393426041 0.236291156 0.000000000 0.000000000 0.000000000 0.000000000
3.900000 0.000000000 0.000000000 0.000000000 0.000000000 -0.387199628 0.243578261 0.036072769 0.057342403
 0.000000000 0.000000000 0.000000000 0.000000000 0.055953789 0.036866740 -0.248939477 0.377823129
 -0.387199628 0.243578261 0.055953789 0.036866740 0.000000000 0.000000000 0.000000000 0.000000000
 0.036072769 0.057342403 -0.248939477 0.377823129 0.000000000 0.000000000 0.000000000 0.000000000
3.950000 0.000000000 0.000000000 0.000000000 0.000000000 -0.242429169 0.380369113 0.057063746 0.036369716
 0.000000000 0.000000000 0.000000000 0.000000000 0.066310290 0.009035277 -0.060226336 0.442003690
 -0.242429169 0.380369113 0.066310290 0.009035277 0.000000000 0.000000000 0.000000000 0.000000000
 0.057063746 0.036369716 -0.060226336 0.442003690 0.000000000 0.000000000 0.000000000 0.000000000
4.000000 0.000000000 0.000000000 0.000000000 0.000000000 -0.055790026 0.441252911 0.067048360 0.008477292
 0.000000000 0.000000000 0.000000000 0.000000000 0.063611599 -0.020486656 0.134825021 0.418635193
 -0.055790026 0.441252911 0.063611599 -0.020486656 0.000000000 0.000000000 0.000000000 0.000000000
 0.067048360 0.008477292 0.134825021 0.418635193 0.000000000 0.000000000 0.000000000 0.000000000
4.050000 0.000000000 0.000000000 0.000000000 0.000000000 0.136178085 0.416890432 0.064150678 -0.020954946
 0.000000000 0.000000000 0.000000000 0.000000000 0.048439551 -0.045891171 0.298228962 0.314789897
 0.136178085 0.416890432 0.048439551 -0.045891171 0.000000000 0.000000000 0.000000000 0.000000000
 0.064150678 -0.020954946 0.298228962 0.314789897 0.000000000 0.000000000 0.000000000 0.000000000
4.100000 0.000000000 0.000000000 0.000000000 0.000000000 0.297007582 0.314342689 0.048977464 -0.046276496
 0.000000000 0.000000000 0.000000000 0.000000000 0.023825105 -0.062208278 0.399259493 0.152912116
 0.297007582 0.314342689 0.023825105 -0.062208278 0.000000000 0.000000000 0.000000000 0.000000000
 0.048977464 -0.046276496 0.399259493 0.152912116 0.000000000 0.000000000 0.000000000 0.000000000
4.150000 0.000000000 0.000000000 0.000000000 0.000000000 0.397192044 0.155239458 0.024487538 -0.062653241
 0.000000000 0.000000000 0.000000000 0.000000000 -0.005362070 -0.066278157 0.420172303 -0.033992999
 0.397192044 0.155239458 -0.005362070 -0.066278157 0.000000000 0.000000000 0.000000000 0.000000000
 0.024487538 -0.062653241 0.420172303 -0.033992999 0.000000000 0.000000000 0.000000000 0.000000000
4.200000 0.000000000 0.000000000 0.000000000 0.000000000 0.419547075 -0.028745488 -0.004589874 -0.066990281
 0.000000000 0.000000000 0.000000000 0.000000000 -0.033381357 -0.057360736 0.359239114 -0.209060935
 0.419547075 -0.028745488 -0.033381357 -0.057360736 0.000000000 0.000000000 0.000000000 0.000000000
 -0.004589874 -0.066990281 0.359239114 -0.209060935 0.000000000 0.000000000 0.000000000 0.000000000
4.250000 0.000000000 0.000000000 0.000000000 0.000000000 0.362080799 -0.202173474 -0.032672539 -0.058514595
 0.000000000 0.000000000 0.000000000 0.000000000 -0.054753138 -0.037265600 0.230594748 -0.338805388
 0.362080799 -0.202173474 -0.054753138 -0.037265600 0.000000000 0.000000000 0.000000000 0.000000000
 -0.032672539 -0.058514595 0.230594748 -0.338805388 0.000000000 0.000000000 0.000000000 0.000000000
4.300000 0.000000000 0.000000000 0.000000000 0.000000000 0.237912157 -0.332635585 -0.054399633 -0.038908447
 0.000000000 0.000000000 0.000000000 0.000000000 -0.065331259 -0.009980632 0.061028229 -0.399478824
 0.237912157 -0.332635585 -0.065331259 -0.009980632 0.000000000 0.000000000 0.000000000 0.000000000
 -0.054399633 -0.038908447 0.061028229 -0.399478824 0.000000000 0.000000000 0.000000000 0.000000000
4.350000 0.000000000 0.000000000 0.000000000 0.000000000 0.072345799 -0.396767354 -0.065655951 -0.011971580
 0.000000000 0.000000000 0.000000000 0.000000000 -0.063106069 0.019123592 -0.115566324 -0.381358089
 0.072345799 -0.396767354 -0.063106069 0.019123592 0.000000000 0.000000000 0.000000000 0.000000000
 -0.065655951 -0.011971580 -0.115566324 -0.381358089 0.000000000 0.000000000 0.000000000 0.000000000
4.400000 0.000000000 0.000000000 0.000000000 0.000000000 -0.102256492 -0.384376545 -0.064350160 0.017119207
 0.000000000 0.000000000 0.000000000 0.000000000 -0.048582907 0.044354109 -0.264936079 -0.290195548
 -0.102256492 -0.384376545 -0.048582907 0.044354109 0.000000000 0.000000000 0.000000000 0.000000000
 -0.064350160 0.017119207 -0.264936079 -0.290195548 0.000000000 0.000000000 0.000000000 0.000000000
4.450000 0.000000000 0.000000000 0.000000000 0.000000000 -0.252774491 -0.299967322 -0.050800299 0.042808062
 0.000000000 0.000000000 0.000000000 0.000000000 -0.024665573 0.060810685 -0.359076984 -0.145646109
 -0.252774491 -0.299967322 -0.024665573 0.060810685 0.000000000 0.000000000 0.000000000 0.000000000
 -0.050800299 0.042808062 -0.359076984 -0.145646109 0.000000000 0.000000000 0.000000000 0.000000000
4.500000 0.000000000 0.000000000 0.000000000 0.000000000 -0.351578466 -0.161456047 -0.027656196 0.060222725
 0.000000000 0.000000000 0.000000000 0.000000000 0.003928095 0.065337105 -0.381436062 0.022932103
 -0.351578466 -0.161456047 0.003928095 0.065337105 0.000000000 0.000000000 0.000000000 0.000000000
 -0.027656196 0.060222725 -0.381436062 0.022932103 0.000000000 0.000000000 0.000000000 0.000000000
4.550000 0.000000000 0.000000000 0.000000000 0.000000000 -0.381556883 0.003592630 0.000622363 0.066098361
 0.000000000 0.000000000 0.000000000 0.000000000 0.031600176 0.057124183 -0.329752884 0.182413971
 -0.381556883 0.003592630 0.031600176 0.057124183 0.000000000 0.000000000 0.000000000 0.000000000
 0.000622363 0.066098361 -0.329752884 0.182413971 0.000000000 0.000000000 0.000000000 0.000000000
4.600000 0.000000000 0.000000000 0.000000000 0.000000000 -0.339017686 0.163426200 0.028628261 0.059387582
 0.000000000 0.000000000 0.000000000 0.000000000 0.052970643 0.037849878 -0.216068371 0.302386196
 -0.339017686 0.163426200 0.052970643 0.037849878 0.000000000 0.000000000 0.000000000 0.000000000
 0.028628261 0.059387582 -0.216068371 0.302386196 0.000000000 0.000000000 0.000000000 0.000000000
4.650000 0.000000000 0.000000000 0.000000000 0.000000000 -0.233985160 0.288185108 0.051043032 0.041443196
 0.000000000 0.000000000 0.000000000 0.000000000 0.063923707 0.011333394 -0.063987487 0.360908429
 -0.233985160 0.288185108 0.063923707 0.011333394 0.000000000 0.000000000 0.000000000 0.000000000
 0.051043032 0.041443196 -0.063987487 0.360908429 0.000000000 0.000000000 0.000000000 0.000000000
4.700000 0.000000000 0.000000000 0.000000000 0.000000000 -0.087917122 0.355445620 0.063647390 0.015742761
 0.000000000 0.000000000 0.000000000 0.000000000 0.062399041 -0.017224845 0.096193978 0.348474084
 -0.087917122 0.355445620 0.062399041 -0.017224845 0.000000000 0.000000000 0.000000000 0.000000000
 0.063647390 0.015742761 0.096193978 0.348474084 0.000000000 0.000000000 0.000000000 0.000000000
4.750000 0.000000000 0.000000000 0.000000000 0.000000000 0.070650877 0.354203603 0.064114289 -0.012788494
 0.000000000 0.000000000 0.000000000 0.000000000 0.048776204 -0.042265489 0.233498472 0.269467344
 0.070650877 0.354203603 0.048776204 -0.042265489 0.000000000 0.000000000 0.000000000 0.000000000
 0.064114289 -0.012788494 0.233498472 0.269467344 0.000000000 0.000000000 0.000000000 0.000000000
4.800000 0.000000000 0.000000000 0.000000000 0.000000000 0.211655922 0.286601602 0.052435794 -0.038723951
 0.000000000 0.000000000 0.000000000 0.000000000 0.025781286 -0.058953464 0.322225639 0.140914388
 0.211655922 0.286601602 0.025781286 -0.058953464 0.000000000 0.000000000 0.000000000 0.000000000
 0.052435794 -0.038723951 0.322225639 0.140914388 0.000000000 0.000000000 0.000000000 0.000000000
4.850000 0.000000000 0.000000000 0.000000000 0.000000000 0.309178434 0.167145126 0.030906105 -0.057168889
 0.000000000 0.000000000 0.000000000 0.000000000 -0.002061540 -0.064110915 0.346722011 -0.011149133
 0.309178434 0.167145126 -0.002061540 -0.064110915 0.000000000 0.000000000 0.000000000 0.000000000
 0.030906105 -0.057168889 0.346722011 -0.011149133 0.000000000 0.000000000 0.000000000 0.000000000
4.900000 0.000000000 0.000000000 0.000000000 0.000000000 0.346169892 0.019630885 0.003668147 -0.064683885
 0.000000000 0.000000000 0.000000000 0.000000000 -0.029322666 -0.056820124 0.304085263 -0.156926629
 0.346169892 0.019630885 -0.029322666 -0.056820124 0.000000000 0.000000000 0.000000000 0.000000000
 0.003668147 -0.064683885 0.304085263 -0.156926629 0.000000000 0.000000000 0.000000000 0.000000000
4.950000 0.000000000 0.000000000 0.000000000 0.000000000 0.317383215 -0.127570146 -0.024086182 -0.059924285
 0.000000000 0.000000000 0.000000000 0.000000000 -0.050727332 -0.038582562 0.204348830 -0.268672435
 0.317383215 -0.127570146 -0.050727332 -0.038582562 0.000000000 0.000000000 0.000000000 0.000000000
 -0.024086182 -0.059924285 0.204348830 -0.268672435 0.000000000 0.000000000 0.000000000 0.000000000
5.000000 0.000000000 0.000000000 0.000000000 0.000000000 0.230013019 -0.246944856 -0.047107251 -0.043877330
 0.000000000 0.000000000 0.000000000 0.000000000 -0.062176263 -0.013007543 0.068187929 -0.325939384
 0.230013019 -0.246944856 -0.062176263 -0.013007543 0.000000000 0.000000000 0.000000000 0.000000000
 -0.047107251 -0.043877330 0.068187929 -0.325939384 0.000000000 0.000000000 0.000000000 0.000000000
5.050000 0.000000000 0.000000000 0.000000000 0.000000000 0.101995067 -0.316950573 -0.061080957 -0.019655924
 0.000000000 0.000000000 0.000000000 0.000000000 -0.061529279 0.014904560 -0.077340127 -0.319276928
 0.101995067 -0.316950573 -0.061529279 0.014904560 0.000000000 0.000000000 0.000000000 0.000000000
 -0.061080957 -0.019655924 -0.077340127 -0.319276928 0.000000000 0.000000000 0.000000000 0.000000000
5.100000 0.000000000 0.000000000 0.000000000 0.000000000 -0.041648083 -0.325864496 -0.063436083 0.008107638
 0.000000000 0.000000000 0.000000000 0.000000000 -0.049002458 0.039741754 -0.204149215 -0.251720479
 -0.041648083 -0.325864496 -0.049002458 0.039741754 0.000000000 0.000000000 0.000000000 0.000000000
 -0.063436083 0.008107638 -0.204149215 -0.251720479 0.000000000 0.000000000 0.000000000 0.000000000
5.150000 0.000000000 0.000000000 0.000000000 0.000000000 -0.173676176 -0.273690310 -0.053814970 0.034149467
 0.000000000 0.000000000 0.000000000 0.000000000 -0.027105838 0.056730364 -0.288517320 -0.137853931
 -0.173676176 -0.273690310 -0.027105838 0.056730364 0.000000000 0.000000000 0.000000000 0.000000000
 -0.053814970 0.034149467 -0.288517320 -0.137853931 0.000000000 0.000000000 0.000000000 0.000000000
5.200000 0.000000000 0.000000000 0.000000000 0.000000000 -0.269772310 -0.171824526 -0.034121911 0.053572950
 0.000000000 0.000000000 0.000000000 0.000000000 -0.000138294 0.062651763 -0.315489644 -0.000696396
 -0.269772310 -0.171824526 -0.000138294 0.062651763 0.000000000 0.000000000 0.000000000 0.000000000
 -0.034121911 0.053572950 -0.315489644 -0.000696396 0.000000000 0.000000000 0.000000000 0.000000000
5.250000 0.000000000 0.000000000 0.000000000 0.000000000 -0.312991014 -0.040610748 -0.008144316 0.062769041
 0.000000000 0.000000000 0.000000000 0.000000000 0.026658361 0.056450070 -0.281482147 0.132929027
 -0.312991014 -0.040610748 0.026658361 0.056450070 0.000000000 0.000000000 0.000000000 0.000000000
 -0.008144316 0.062769041 -0.281482147 0.132929027 0.000000000 0.000000000 0.000000000 0.000000000
5.300000 0.000000000 0.000000000 0.000000000 0.000000000 -0.296706222 0.094701033 0.019177654 0.060085187
 0.000000000 0.000000000 0.000000000 0.000000000 0.048119282 0.039416588 -0.194642769 0.237617475
 -0.296706222 0.094701033 0.048119282 0.039416588 0.000000000 0.000000000 0.000000000 0.000000000
 0.019177654 0.060085187 -0.194642769 0.237617475 0.000000000 0.000000000 0.000000000 0.000000000
5.350000 0.000000000 0.000000000 0.000000000 0.000000000 -0.225554889 0.208792133 0.042691799 0.046119286
 0.000000000 0.000000000 0.000000000 0.000000000 0.060151896 0.014919685 -0.072967475 0.294183964
 -0.225554889 0.208792133 0.060151896 0.014919685 0.000000000 0.000000000 0.000000000 0.000000000
 0.042691799 0.046119286 -0.072967475 0.294183964 0.000000000 0.000000000 0.000000000 0.000000000
5.400000 0.000000000 0.000000000 0.000000000 0.000000000 -0.114259282 0.280987529 0.058005623 0.023587100
 0.000000000 0.000000000 0.000000000 0.000000000 0.060514948 -0.012263189 0.059404641 0.293143063
 -0.114259282 0.280987529 0.060514948 -0.012263189 0.000000000 0.000000000 0.000000000 0.000000000
 0.058005623 0.023587100 0.059404641 0.293143063 0.000000000 0.000000000 0.000000000 0.000000000
5.450000 0.000000000 0.000000000 0.000000000 0.000000000 0.015391723 0.298971151 0.062305862 -0.003207649
 0.000000000 0.000000000 0.000000000 0.000000000 0.049233322 -0.036878516 0.176959470 0.236243309
 0.015391723 0.298971151 0.049233322 -0.036878516 0.000000000 0.000000000 0.000000000 0.000000000
 0.062305862 -0.003207649 0.176959470 0.236243309 0.000000000 0.000000000 0.000000000 0.000000000
5.500000 0.000000000 0.000000000 0.000000000 0.000000000 0.138788685 0.260843088 0.054873172 -0.029196769
 0.000000000 0.000000000 0.000000000 0.000000000 0.028572482 -0.054212367 0.257701907 0.135821098
 0.138788685 0.260843088 0.028572482 -0.054212367 0.000000000 0.000000000 0.000000000 0.000000000
 0.054873172 -0.029196769 0.257701907 0.135821098 0.000000000 0.000000000 0.000000000 0.000000000
5.550000 0.000000000 0.000000000 0.000000000 0.000000000 0.233151651 0.175184603 0.037198290 -0.049506878
 0.000000000 0.000000000 0.000000000 0.000000000 0.002581987 -0.060992330 0.287242157 0.012159814
 0.233151651 0.175184603 0.002581987 -0.060992330 0.000000000 0.000000000 0.000000000 0.000000000
 0.037198290 -0.049506878 0.287242157 0.012159814 0.000000000 0.000000000 0.000000000 0.000000000
5.600000 0.000000000 0.000000000 0.000000000 0.000000000 0.281710079 0.059175954 0.012681904 -0.060372837
 0.000000000 0.000000000 0.000000000 0.000000000 -0.023699685 -0.056003376 0.261321417 -0.110586819
 0.281710079 0.059175954 -0.023699685 -0.056003376 0.000000000 0.000000000 0.000000000 0.000000000
 0.012681904 -0.060372837 0.261321417 -0.110586819 0.000000000 0.000000000 0.000000000 0.000000000
5.650000 0.000000000 0.000000000 0.000000000 0.000000000 0.276650973 -0.064828482 -0.014021151 -0.059834275
 0.000000000 0.000000000 0.000000000 0.000000000 -0.045222591 -0.040302207 0.186342105 -0.209092094
 0.276650973 -0.064828482 -0.045222591 -0.040302207 0.000000000 0.000000000 0.000000000 0.000000000
 -0.014021151 -0.059834275 0.186342105 -0.209092094 0.000000000 0.000000000 0.000000000 0.000000000
5.700000 0.000000000 0.000000000 0.000000000 0.000000000 0.220323799 -0.173589216 -0.037886656 -0.048086697
 0.000000000 0.000000000 0.000000000 0.000000000 -0.057895379 -0.016993067 0.077858893 -0.265265250
 0.220323799 -0.173589216 -0.057895379 -0.016993067 0.000000000 0.000000000 0.000000000 0.000000000
 -0.037886656 -0.048086697 0.077858893 -0.265265250 0.000000000 0.000000000 0.000000000 0.000000000
5.750000 0.000000000 0.000000000 0.000000000 0.000000000 0.124528220 -0.247315798 -0.054466414 -0.027424878
 0.000000000 0.000000000 0.000000000 0.000000000 -0.059361695 0.009387393 -0.042625363 -0.269543810
 0.124528220 -0.247315798 -0.059361695 0.009387393 0.000000000 0.000000000 0.000000000 0.000000000
 -0.054466414 -0.027424878 -0.042625363 -0.269543810 0.000000000 0.000000000 0.000000000 0.000000000
5.800000 0.000000000 0.000000000 0.000000000 0.000000000 0.008070485 -0.273242212 -0.060716449 -0.001793322
 0.000000000 0.000000000 0.000000000 0.000000000 -0.049435950 0.033754050 -0.151903337 -0.222476584
 0.008070485 -0.273242212 -0.049435950 0.033754050 0.000000000 0.000000000 0.000000000 0.000000000
 -0.060716449 -0.001793322 -0.151903337 -0.222476584 0.000000000 0.000000000 0.000000000 0.000000000
5.850000 0.000000000 0.000000000 0.000000000 0.000000000 -0.106910701 -0.247802948 -0.055554023 0.023967913
 0.000000000 0.000000000 0.000000000 0.000000000 -0.030118388 0.051453674 -0.229513028 -0.134345363
 -0.106910701 -0.247802948 -0.030118388 0.051453674 0.000000000 0.000000000 0.000000000 0.000000000
 -0.055554023 0.023967913 -0.229513028 -0.134345363 0.000000000 0.000000000 0.000000000 0.000000000
5.900000 0.000000000 0.000000000 0.000000000 0.000000000 -0.199134680 -0.177046121 -0.040041958 0.045037657
 0.000000000 0.000000000 0.000000000 0.000000000 -0.005190957 0.059152744 -0.261544747 -0.022951893
 -0.199134680 -0.177046121 -0.005190957 0.059152744 0.000000000 0.000000000 0.000000000 0.000000000
 -0.040041958 0.045037657 -0.261544747 -0.022951893 0.000000000 0.000000000 0.000000000 0.000000000
5.950000 0.000000000 0.000000000 0.000000000 0.000000000 -0.252096295 -0.075256159 -0.017169620 0.057515528
 0.000000000 0.000000000 0.000000000 0.000000000 0.020524199 0.055463537 -0.243102217 0.089959613
 -0.252096295 -0.075256159 0.020524199 0.055463537 0.000000000 0.000000000 0.000000000 0.000000000
 -0.017169620 0.057515528 -0.243102217 0.089959613 0.000000000 0.000000000 0.000000000 0.000000000
6.000000 0.000000000 0.000000000 0.000000000 0.000000000 -0.256993549 0.037909792 0.008724293 0.059142688
 0.000000000 0.000000000 0.000000000 0.000000000 0.042098056 0.041191307 -0.178989163 0.182929269
 -0.256993549 0.037909792 0.042098056 0.041191307 0.000000000 0.000000000 0.000000000 0.000000000
 0.008724293 0.059142688 -0.178989163 0.182929269 0.000000000 0.000000000 0.000000000 0.000000000
6.050000 0.000000000 0.000000000 0.000000000 0.000000000 -0.214151607 0.141201618 0.032775524 0.049708575
 0.000000000 0.000000000 0.000000000 0.000000000 0.055439151 0.019159181 -0.082540477 0.238839746
 -0.214151607 0.141201618 0.055439151 0.019159181 0.000000000 0.000000000 0.000000000 0.000000000
 0.032775524 0.049708575 -0.082540477 0.238839746 0.000000000 0.000000000 0.000000000 0.000000000
6.100000 0.000000000 0.000000000 0.000000000 0.000000000 -0.132721237 0.215748715 0.050508069 0.031070838
 0.000000000 0.000000000 0.000000000 0.000000000 0.058068313 -0.006351278 0.027129922 0.248042819
 -0.132721237 0.215748715 0.058068313 -0.006351278 0.000000000 0.000000000 0.000000000 0.000000000
 0.050508069 0.031070838 0.027129922 0.248042819 0.000000000 0.000000000 0.000000000 0.000000000
6.150000 0.000000000 0.000000000 0.000000000 0.000000000 -0.028754443 0.248486294 0.058666408 0.006788784
 0.000000000 0.000000000 0.000000000 0.000000000 0.049577255 -0.030432831 0.128900708 0.209988454
 -0.028754443 0.248486294 0.049577255 -0.030432831 0.000000000 0.000000000 0.000000000 0.000000000
 0.058666408 0.006788784 0.128900708 0.209988454 0.000000000 0.000000000 0.000000000 0.000000000
6.200000 0.000000000 0.000000000 0.000000000 0.000000000 0.077943390 0.234417754 0.055811599 -0.018557235
 0.000000000 0.000000000 0.000000000 0.000000000 0.031686693 -0.048496569 0.203693443 0.133089240
 0.077943390 0.234417754 0.031686693 -0.048496569 0.000000000 0.000000000 0.000000000 0.000000000
 0.055811599 -0.018557235 0.203693443 0.133089240 0.000000000 0.000000000 0.000000000 0.000000000
6.250000 0.000000000 0.000000000 0.000000000 0.000000000 0.167570805 0.177327059 0.042572460 -0.040230191
 0.000000000 0.000000000 0.000000000 0.000000000 0.007897065 -0.057145597 0.238028540 0.032893645
 0.167570805 0.177327059 0.007897065 -0.057145597 0.000000000 0.000000000 0.000000000 0.000000000
 0.042572460 -0.040230191 0.238028540 0.032893645 0.000000000 0.000000000 0.000000000 0.000000000
6.300000 0.000000000 0.000000000 0.000000000 0.000000000 0.223987444 0.088851382 0.021508544 -0.054221372
 0.000000000 0.000000000 0.000000000 0.000000000 -0.017197154 -0.054812266 0.226428418 -0.071041112
 0.223987444 0.088851382 -0.017197154 -0.054812266 0.000000000 0.000000000 0.000000000 0.000000000
 0.021508544 -0.054221372 0.226428418 -0.071041112 0.000000000 0.000000000 0.000000000 0.000000000
6.350000 0.000000000 0.000000000 0.000000000 0.000000000 0.237599267 -0.013871036 -0.003385498 -0.057990756
 0.000000000 0.000000000 0.000000000 0.000000000 -0.038795114 -0.042039761 0.172244976 -0.158951036
 0.237599267 -0.013871036 -0.038795114 -0.042039761 0.000000000 0.000000000 0.000000000 0.000000000
 -0.003385498 -0.057990756 0.172244976 -0.158951036 0.000000000 0.000000000 0.000000000 0.000000000
6.400000 0.000000000 0.000000000 0.000000000 0.000000000 0.206960426 -0.111506137 -0.027438065 -0.050926287
 0.000000000 0.000000000 0.000000000 0.000000000 -0.052807688 -0.021358017 0.086797302 -0.214606290
 0.206960426 -0.111506137 -0.052807688 -0.021358017 0.000000000 0.000000000 0.000000000 0.000000000
 -0.027438065 -0.050926287 0.086797302 -0.214606290 0.000000000 0.000000000 0.000000000 0.000000000
6.450000 0.000000000 0.000000000 0.000000000 0.000000000 0.138830640 -0.186147919 -0.046177300 -0.034439408
 0.000000000 0.000000000 0.000000000 0.000000000 -0.056630559 0.003218086 -0.012972607 -0.228286643
 0.138830640 -0.186147919 -0.056630559 0.003218086 0.000000000 0.000000000 0.000000000 0.000000000
 -0.046177300 -0.034439408 -0.012972607 -0.228286643 0.000000000 0.000000000 0.000000000 0.000000000
6.500000 0.000000000 0.000000000 0.000000000 0.000000000 0.046718292 -0.224584782 -0.056161841 -0.011682827
 0.000000000 0.000000000 0.000000000 0.000000000 -0.049626397 0.026968640 -0.107844509 -0.198450288
 0.046718292 -0.224584782 -0.049626397 0.026968640 0.000000000 0.000000000 0.000000000 0.000000000
 -0.056161841 -0.011682827 -0.107844509 -0.198450288 0.000000000 0.000000000 0.000000000 0.000000000
6.550000 0.000000000 0.000000000 0.000000000 0.000000000 -0.051782543 -0.220616093 -0.055611458 0.013053004
 0.000000000 0.000000000 0.000000000 0.000000000 -0.033227248 0.045375144 -0.180007636 -0.131815743
 -0.051782543 -0.220616093 -0.033227248 0.045375144 0.000000000 0.000000000 0.000000000 0.000000000
 -0.055611458 0.013053004 -0.180007636 -0.131815743 0.000000000 0.000000000 0.000000000 0.000000000
6.600000 0.000000000 0.000000000 0.000000000 0.000000000 -0.138339180 -0.176017265 -0.044722312 0.035149098
 0.000000000 0.000000000 0.000000000 0.000000000 -0.010641618 0.054979434 -0.216387058 -0.041883086
 -0.138339180 -0.176017265 -0.010641618 0.054979434 0.000000000 0.000000000 0.000000000 0.000000000
 -0.044722312 0.035149098 -0.216387058 -0.041883086 0.000000000 0.000000000 0.000000000 0.000000000
6.650000 0.000000000 0.000000000 0.000000000 0.000000000 -0.197277516 -0.100010936 -0.025611474 0.050520154
 0.000000000 0.000000000 0.000000000 0.000000000 0.013773849 0.054032009 -0.210991056 0.053785877
 -0.197277516 -0.100010936 0.013773849 0.054032009 0.000000000 0.000000000 0.000000000 0.000000000
 -0.025611474 0.050520154 -0.210991056 0.053785877 0.000000000 0.000000000 0.000000000 0.000000000
6.700000 0.000000000 0.000000000 0.000000000 0.000000000 -0.218402826 -0.007380334 -0.001904837 0.056368955
 0.000000000 0.000000000 0.000000000 0.000000000 0.035354957 0.042808520 -0.165862604 0.136983603
 -0.218402826 -0.007380334 0.035354957 0.042808520 0.000000000 0.000000000 0.000000000 0.000000000
 -0.001904837 0.056368955 -0.165862604 0.136983603 0.000000000 0.000000000 0.000000000 0.000000000
6.750000 0.000000000 0.000000000 0.000000000 0.000000000 -0.198740072 0.084392958 0.021951264 0.051693838
 0.000000000 0.000000000 0.000000000 0.000000000 0.050020617 0.023537636 -0.090491858 0.192307277
 -0.198740072 0.084392958 0.050020617 0.023537636 0.000000000 0.000000000 0.000000000 0.000000000
 0.021951264 0.051693838 -0.090491858 0.192307277 0.000000000 0.000000000 0.000000000 0.000000000
6.800000 0.000000000 0.000000000 0.000000000 0.000000000 -0.142901422 0.158415273 0.041524009 0.037457499
 0.000000000 0.000000000 0.000000000 0.000000000 0.055043612 -0.000041924 0.000159940 0.209992941
 -0.142901422 0.158415273 0.055043612 -0.000041924 0.000000000 0.000000000 0.000000000 0.000000000
 0.041524009 0.037457499 0.000159940 0.209992941 0.000000000 0.000000000 0.000000000 0.000000000
6.850000 0.000000000 0.000000000 0.000000000 0.000000000 -0.062048573 0.201476028 0.053217216 0.016389306
 0.000000000 0.000000000 0.000000000 0.000000000 0.049556118 -0.023407100 0.088617368 0.187615412
 -0.062048573 0.201476028 0.049556118 -0.023407100 0.000000000 0.000000000 0.000000000 0.000000000
 0.053217216 0.016389306 0.088617368 0.187615412 0.000000000 0.000000000 0.000000000 0.000000000
6.900000 0.000000000 0.000000000 0.000000000 0.000000000 0.028323539 0.206387655 0.054930938 -0.007538428
 0.000000000 0.000000000 0.000000000 0.000000000 0.034696649 -0.042118034 0.158246749 0.130362965
 0.028323539 0.206387655 0.034696649 -0.042118034 0.000000000 0.000000000 0.000000000 0.000000000
 0.054930938 -0.007538428 0.158246749 0.130362965 0.000000000 0.000000000 0.000000000 0.000000000
6.950000 0.000000000 0.000000000 0.000000000 0.000000000 0.111344383 0.173159423 0.046436800 -0.029859633
 0.000000000 0.000000000 0.000000000 0.000000000 0.013374194 -0.052661085 0.196369327 0.049871387
 0.111344383 0.173159423 0.013374194 -0.052661085 0.000000000 0.000000000 0.000000000 0.000000000
 0.046436800 -0.029859633 0.196369327 0.049871387 0.000000000 0.000000000 0.000000000 0.000000000
7.000000 0.000000000 0.000000000 0.000000000 0.000000000 0.171904671 0.108818961 0.029402363 -0.046447821
 0.000000000 0.000000000 0.000000000 0.000000000 -0.010301650 -0.053107419 0.196552028 -0.038126693
 0.171904671 0.108818961 -0.010301650 -0.053107419 0.000000000 0.000000000 0.000000000 0.000000000
 0.029402363 -0.046447821 0.196552028 -0.038126693 0.000000000 0.000000000 0.000000000 0.000000000
7.050000 0.000000000 0.000000000 0.000000000 0.000000000 0.199391649 0.025948290 0.007063613 -0.054278160
 0.000000000 0.000000000 0.000000000 0.000000000 -0.031812875 -0.043463990 0.159665629 -0.116865084
 0.199391649 0.025948290 -0.031812875 -0.043463990 0.000000000 0.000000000 0.000000000 0.000000000
 0.007063613 -0.054278160 0.159665629 -0.116865084 0.000000000 0.000000000 0.000000000 0.000000000
7.100000 0.000000000 0.000000000 0.000000000 0.000000000 0.189530594 -0.059764567 -0.016390104 -0.051977723
 0.000000000 0.000000000 0.000000000 0.000000000 -0.047094877 -0.025653461 0.093542297 -0.171725876
 0.189530594 -0.059764567 -0.047094877 -0.025653461 0.000000000 0.000000000 0.000000000 0.000000000
 -0.016390104 -0.051977723 0.093542297 -0.171725876 0.000000000 0.000000000 0.000000000 0.000000000
7.150000 0.000000000 0.000000000 0.000000000 0.000000000 0.145016699 -0.132484307 -0.036601741 -0.040064093
 0.000000000 0.000000000 0.000000000 0.000000000 -0.053303590 -0.003130698 0.011331929 -0.192938615
 0.145016699 -0.132484307 -0.053303590 -0.003130698 0.000000000 0.000000000 0.000000000 0.000000000
 -0.036601741 -0.040064093 0.011331929 -0.192938615 0.000000000 0.000000000 0.000000000 0.000000000
7.200000 0.000000000 0.000000000 0.000000000 0.000000000 0.074851404 -0.179141629 -0.049855503 -0.020831308
 0.000000000 0.000000000 0.000000000 0.000000000 -0.049343362 0.019787650 -0.071101316 -0.177301398
 0.074851404 -0.179141629 -0.049343362 0.019787650 0.000000000 0.000000000 0.000000000 0.000000000
 -0.049855503 -0.020831308 -0.071101316 -0.177301398 0.000000000 0.000000000 0.000000000 0.000000000
7.250000 0.000000000 0.000000000 0.000000000 0.000000000 -0.007462978 -0.191767567 -0.053759004 0.002092128
 0.000000000 0.000000000 0.000000000 0.000000000 -0.036057898 0.038750361 -0.138229169 -0.128624693
 -0.007462978 -0.191767567 -0.036057898 0.038750361 0.000000000 0.000000000 0.000000000 0.000000000
 -0.053759004 0.002092128 -0.138229169 -0.128624693 0.000000000 0.000000000 0.000000000 0.000000000
7.300000 0.000000000 0.000000000 0.000000000 0.000000000 -0.086511018 -0.168834838 -0.047673614 0.024427973
 0.000000000 0.000000000 0.000000000 0.000000000 -0.016051515 0.050197170 -0.177771945 -0.056846015
 -0.086511018 -0.168834838 -0.016051515 0.050197170 0.000000000 0.000000000 0.000000000 0.000000000
 -0.047673614 0.024427973 -0.177771945 -0.056846015 0.000000000 0.000000000 0.000000000 0.000000000
7.350000 0.000000000 0.000000000 0.000000000 0.000000000 -0.147840412 -0.115384504 -0.032815893 0.042046505
 0.000000000 0.000000000 0.000000000 0.000000000 0.006821602 0.052026138 -0.182929966 0.023985548
 -0.147840412 -0.115384504 0.006821602 0.052026138 0.000000000 0.000000000 0.000000000 0.000000000
 -0.032815893 0.042046505 -0.182929966 0.023985548 0.000000000 0.000000000 0.000000000 0.000000000
7.400000 0.000000000 0.000000000 0.000000000 0.000000000 -0.180592222 -0.041944378 -0.012014682 0.051729413
 0.000000000 0.000000000 0.000000000 0.000000000 0.028199975 0.043977990 -0.153531277 0.098448750
 -0.180592222 -0.041944378 0.028199975 0.043977990 0.000000000 0.000000000 0.000000000 0.000000000
 -0.012014682 0.051729413 -0.153531277 0.098448750 0.000000000 0.000000000 0.000000000 0.000000000
7.450000 0.000000000 0.000000000 0.000000000 0.000000000 -0.179408808 0.037533159 0.010827713 0.051756555
 0.000000000 0.000000000 0.000000000 0.000000000 0.044046154 0.027667500 -0.095906559 0.152681489
 -0.179408808 0.037533159 0.044046154 0.027667500 0.000000000 0.000000000 0.000000000 0.000000000
 0.010827713 0.051756555 -0.095906559 0.152681489 0.000000000 0.000000000 0.000000000 0.000000000
7.500000 0.000000000 0.000000000 0.000000000 0.000000000 -0.145287195 0.108312148 0.031467588 0.042209832
 0.000000000 0.000000000 0.000000000 0.000000000 0.051408441 0.006259575 -0.021545597 0.176949013
 -0.145287195 0.108312148 0.051408441 0.006259575 0.000000000 0.000000000 0.000000000 0.000000000
 0.031467588 0.042209832 -0.021545597 0.176949013 0.000000000 0.000000000 0.000000000 0.000000000
7.550000 0.000000000 0.000000000 0.000000000 0.000000000 -0.085246892 0.157594904 0.046107862 0.024940857
 0.000000000 0.000000000 0.000000000 0.000000000 0.048969463 -0.016145023 0.055183071 0.167375745
 -0.085246892 0.157594904 0.048969463 -0.016145023 0.000000000 0.000000000 0.000000000 0.000000000
 0.046107862 0.024940857 0.055183071 0.167375745 0.000000000 0.000000000 0.000000000 0.000000000
7.600000 0.000000000 0.000000000 0.000000000 0.000000000 -0.010901467 0.176824011 0.052095797 0.003211784
 0.000000000 0.000000000 0.000000000 0.000000000 0.037279920 -0.035295071 0.119798839 0.126535833
 -0.010901467 0.176824011 0.037279920 -0.035295071 0.000000000 0.000000000 0.000000000 0.000000000
 0.052095797 0.003211784 0.119798839 0.126535833 0.000000000 0.000000000 0.000000000 0.000000000
7.650000 0.000000000 0.000000000 0.000000000 0.000000000 0.063778224 0.163152790 0.048402405 -0.018921034
 0.000000000 0.000000000 0.000000000 0.000000000 0.018636452 -0.047595022 0.160431296 0.062818967
 0.063778224 0.163152790 0.018636452 -0.047595022 0.000000000 0.000000000 0.000000000 0.000000000
 0.048402405 -0.018921034 0.160431296 0.062818967 0.000000000 0.000000000 0.000000000 0.000000000
7.700000 0.000000000 0.000000000 0.000000000 0.000000000 0.125080234 0.119834677 0.035797157 -0.037364116
 0.000000000 0.000000000 0.000000000 0.000000000 -0.003369681 -0.050779151 0.169988447 -0.011280353
 0.125080234 0.119834677 -0.003369681 -0.050779151 0.000000000 0.000000000 0.000000000 0.000000000
 0.035797157 -0.037364116 0.169988447 -0.011280353 0.000000000 0.000000000 0.000000000 0.000000000
7.750000 0.000000000 0.000000000 0.000000000 0.000000000 0.162059053 0.055485816 0.016688774 -0.048743394
 0.000000000 0.000000000 0.000000000 0.000000000 -0.024544390 -0.044327506 0.147377378 -0.081603686
 0.162059053 0.055485816 -0.024544390 -0.044327506 0.000000000 0.000000000 0.000000000 0.000000000
 0.016688774 -0.048743394 0.147377378 -0.081603686 0.000000000 0.000000000 0.000000000 0.000000000
7.800000 0.000000000 0.000000000 0.000000000 0.000000000 0.168477910 -0.017617521 -0.005335152 -0.051020529
 0.000000000 0.000000000 0.000000000 0.000000000 -0.040889805 -0.029547602 0.097570888 -0.135024648
 0.168477910 -0.017617521 -0.040889805 -0.029547602 0.000000000 0.000000000 0.000000000 0.000000000
 -0.005335152 -0.051020529 0.097570888 -0.135024648 0.000000000 0.000000000 0.000000000 0.000000000
7.850000 0.000000000 0.000000000 0.000000000 0.000000000 0.143843590 -0.085872352 -0.026181720 -0.043856638
 0.000000000 0.000000000 0.000000000 0.000000000 -0.049358393 -0.009309776 0.030534751 -0.161888572
 0.143843590 -0.085872352 -0.049358393 -0.009309776 0.000000000 0.000000000 0.000000000 0.000000000
 -0.026181720 -0.043856638 0.030534751 -0.161888572 0.000000000 0.000000000 0.000000000 0.000000000
7.900000 0.000000000 0.000000000 0.000000000 0.000000000 0.093365572 -0.136871389 -0.042013018 -0.028658797
 0.000000000 0.000000000 0.000000000 0.000000000 -0.048420078 0.012510327 -0.040756556 -0.157744522
 0.093365572 -0.136871389 -0.048420078 0.012510327 0.000000000 0.000000000 0.000000000 0.000000000
 -0.042013018 -0.028658797 -0.040756556 -0.157744522 0.000000000 0.000000000 0.000000000 0.000000000
7.950000 0.000000000 0.000000000 0.000000000 0.000000000 0.026872053 -0.161648451 -0.049952001 -0.008303901
 0.000000000 0.000000000 0.000000000 0.000000000 -0.038337039 0.031773826 -0.102822502 -0.124061553
 0.026872053 -0.161648451 -0.038337039 0.031773826 0.000000000 0.000000000 0.000000000 0.000000000
 -0.049952001 -0.008303901 -0.102822502 -0.124061553 0.000000000 0.000000000 0.000000000 0.000000000
8.000000 0.000000000 0.000000000 0.000000000 0.000000000 -0.043094628 -0.156242483 -0.048604291 0.013405981
 0.000000000 0.000000000 0.000000000 0.000000000 -0.021097184 0.044863214 -0.144216483 -0.067818628
 -0.043094628 -0.156242483 -0.021097184 0.044863214 0.000000000 0.000000000 0.000000000 0.000000000
 -0.048604291 0.013405981 -0.144216483 -0.067818628 0.000000000 0.000000000 0.000000000 0.000000000
8.050000 0.000000000 0.000000000 0.000000000 0.000000000 -0.103635793 -0.122309829 -0.038301447 0.032453653
 0.000000000 0.000000000 0.000000000 0.000000000 -0.000022269 0.049360863 -0.157626388 -0.000071111
 -0.103635793 -0.122309829 -0.000022269 0.049360863 0.000000000 0.000000000 0.000000000 0.000000000
 -0.038301447 0.032453653 -0.157626388 -0.000071111 0.000000000 0.000000000 0.000000000 0.000000000
8.100000 0.000000000 0.000000000 0.000000000 0.000000000 -0.143865800 -0.066694665 -0.021023628 0.045349671
 0.000000000 0.000000000 0.000000000 0.000000000 0.020872121 0.044494346 -0.141152397 0.066214029
 -0.143865800 -0.066694665 0.020872121 0.044494346 0.000000000 0.000000000 0.000000000 0.000000000
 -0.021023628 0.045349671 -0.141152397 0.066214029 0.000000000 0.000000000 0.000000000 0.000000000
8.150000 0.000000000 0.000000000 0.000000000 0.000000000 -0.156859419 -0.000060033 -0.000019048 0.049770792
 0.000000000 0.000000000 0.000000000 0.000000000 0.037641418 0.031266802 -0.098541577 0.118632049
 -0.156859419 -0.000060033 0.037641418 0.031266802 0.000000000 0.000000000 0.000000000 0.000000000
 -0.000019048 0.049770792 -0.098541577 0.118632049 0.000000000 0.000000000 0.000000000 0.000000000
8.200000 0.000000000 0.000000000 0.000000000 0.000000000 -0.140830817 0.065148787 0.020806666 0.044977349
 0.000000000 0.000000000 0.000000000 0.000000000 0.047156148 0.012250838 -0.038359210 0.147652964
 -0.140830817 0.065148787 0.047156148 0.012250838 0.000000000 0.000000000 0.000000000 0.000000000
 0.020806666 0.044977349 -0.038359210 0.147652964 0.000000000 0.000000000 0.000000000 0.000000000
8.250000 0.000000000 0.000000000 0.000000000 0.000000000 -0.099346067 0.117021086 0.037616424 0.031934790
 0.000000000 0.000000000 0.000000000 0.000000000 0.047685000 -0.008911807 0.027723777 0.148343460
 -0.099346067 0.117021086 0.047685000 -0.008911807 0.000000000 0.000000000 0.000000000 0.000000000
 0.037616424 0.031934790 0.027723777 0.148343460 0.000000000 0.000000000 0.000000000 0.000000000
8.300000 0.000000000 0.000000000 0.000000000 0.000000000 -0.040552228 0.146347894 0.047348075 0.013119901
 0.000000000 0.000000000 0.000000000 0.000000000 0.039208469 -0.028207567 0.087186609 0.121189233
 -0.040552228 0.146347894 0.039208469 -0.028207567 0.000000000 0.000000000 0.000000000 0.000000000
 0.047348075 0.013119901 0.087186609 0.121189233 0.000000000 0.000000000 0.000000000 0.000000000
8.350000 0.000000000 0.000000000 0.000000000 0.000000000 0.024413937 0.148246851 0.048271323 -0.007949532
 0.000000000 0.000000000 0.000000000 0.000000000 0.023406525 -0.042011817 0.129023181 0.071884164
 0.024413937 0.148246851 0.023406525 -0.042011817 0.000000000 0.000000000 0.000000000 0.000000000
 0.048271323 -0.007949532 0.129023181 0.071884164 0.000000000 0.000000000 0.000000000 0.000000000
8.400000 0.000000000 0.000000000 0.000000000 0.000000000 0.083528435 0.122960035 0.040294075 -0.027372317
 0.000000000 0.000000000 0.000000000 0.000000000 0.003325840 -0.047769020 0.145770324 0.010149021
 0.083528435 0.122960035 0.003325840 -0.047769020 0.000000000 0.000000000 0.000000000 0.000000000
 0.040294075 -0.027372317 0.145770324 0.010149021 0.000000000 0.000000000 0.000000000 0.000000000
8.450000 0.000000000 0.000000000 0.000000000 0.000000000 0.126098150 0.075697511 0.024964225 -0.041585814
 0.000000000 0.000000000 0.000000000 0.000000000 -0.017207580 -0.044464768 0.134827829 -0.052177505
 0.126098150 0.075697511 -0.017207580 -0.044464768 0.000000000 0.000000000 0.000000000 0.000000000
 0.024964225 -0.041585814 0.134827829 -0.052177505 0.000000000 0.000000000 0.000000000 0.000000000
8.500000 0.000000000 0.000000000 0.000000000 0.000000000 0.144686836 0.015576418 0.005169510 -0.048018742
 0.000000000 0.000000000 0.000000000 0.000000000 -0.034317114 -0.032802754 0.098839045 -0.103402014
 0.144686836 0.015576418 -0.034317114 -0.032802754 0.000000000 0.000000000 0.000000000 0.000000000
 0.005169510 -0.048018742 0.098839045 -0.103402014 0.000000000 0.000000000 0.000000000 0.000000000
8.550000 0.000000000 0.000000000 0.000000000 0.000000000 0.136403717 -0.046130554 -0.015406424 -0.045555350
 0.000000000 0.000000000 0.000000000 0.000000000 -0.044806884 -0.015056157 0.045081769 -0.134162628
 0.136403717 -0.046130554 -0.044806884 -0.015056157 0.000000000 0.000000000 0.000000000 0.000000000
 -0.015406424 -0.045555350 0.045081769 -0.134162628 0.000000000 0.000000000 0.000000000 0.000000000
8.600000 0.000000000 0.000000000 0.000000000 0.000000000 0.103333449 -0.098102192 -0.032969295 -0.034727368
 0.000000000 0.000000000 0.000000000 0.000000000 -0.046757885 0.005375372 -0.015994756 -0.139131002
 0.103333449 -0.098102192 -0.046757885 0.005375372 0.000000000 0.000000000 0.000000000 0.000000000
 -0.032969295 -0.034727368 -0.015994756 -0.139131002 0.000000000 0.000000000 0.000000000 0.000000000
8.650000 0.000000000 0.000000000 0.000000000 0.000000000 0.052047861 -0.131038732 -0.044313382 -0.017601031
 0.000000000 0.000000000 0.000000000 0.000000000 -0.039877861 0.024616843 -0.072794259 -0.117922490
 0.052047861 -0.131038732 -0.039877861 0.024616843 0.000000000 0.000000000 0.000000000 0.000000000
 -0.044313382 -0.017601031 -0.072794259 -0.117922490 0.000000000 0.000000000 0.000000000 0.000000000
8.700000 0.000000000 0.000000000 0.000000000 0.000000000 -0.007691273 -0.139317701 -0.047405908 0.002617125
 0.000000000 0.000000000 0.000000000 0.000000000 -0.025541389 0.039052476 -0.114768419 -0.075061689
 -0.007691273 -0.139317701 -0.025541389 0.039052476 0.000000000 0.000000000 0.000000000 0.000000000
 -0.047405908 0.002617125 -0.114768419 -0.075061689 0.000000000 0.000000000 0.000000000 0.000000000
8.750000 0.000000000 0.000000000 0.000000000 0.000000000 -0.064783945 -0.121942403 -0.041750216 0.022180502
 0.000000000 0.000000000 0.000000000 0.000000000 -0.006515576 0.046004535 -0.134368250 -0.019030440
 -0.064783945 -0.121942403 -0.006515576 0.046004535 0.000000000 0.000000000 0.000000000 0.000000000
 -0.041750216 0.022180502 -0.134368250 -0.019030440 0.000000000 0.000000000 0.000000000 0.000000000
8.800000 0.000000000 0.000000000 0.000000000 0.000000000 -0.108848098 -0.082625336 -0.028463090 0.037496407
 0.000000000 0.000000000 0.000000000 0.000000000 0.013573937 0.044229110 -0.128392423 0.039403703
 -0.108848098 -0.082625336 0.013573937 0.044229110 0.000000000 0.000000000 0.000000000 0.000000000
 -0.028463090 0.037496407 -0.128392423 0.039403703 0.000000000 0.000000000 0.000000000 0.000000000
8.850000 0.000000000 0.000000000 0.000000000 0.000000000 -0.132100600 -0.029010068 -0.010054710 0.045785251
 0.000000000 0.000000000 0.000000000 0.000000000 0.030933671 0.034137267 -0.098493583 0.089250500
 -0.132100600 -0.029010068 0.030933671 0.034137267 0.000000000 0.000000000 0.000000000 0.000000000
 -0.010054710 0.045785251 -0.098493583 0.089250500 0.000000000 0.000000000 0.000000000 0.000000000
8.900000 0.000000000 0.000000000 0.000000000 0.000000000 -0.130723590 0.028807860 0.010045490 0.045584177
 0.000000000 0.000000000 0.000000000 0.000000000 0.042318156 0.017702523 -0.050766242 0.121357490
 -0.130723590 0.028807860 0.042318156 0.017702523 0.000000000 0.000000000 0.000000000 0.000000000
 0.010045490 0.045584177 -0.050766242 0.121357490 0.000000000 0.000000000 0.000000000 0.000000000
8.950000 0.000000000 0.000000000 0.000000000 0.000000000 -0.105477965 0.080176051 0.028127534 0.037004005
 0.000000000 0.000000000 0.000000000 0.000000000 0.045635962 -0.001924942 0.005486947 0.130082902
 -0.105477965 0.080176051 0.045635962 -0.001924942 0.000000000 0.000000000 0.000000000 0.000000000
 0.028127534 0.037004005 0.005486947 0.130082902 0.000000000 0.000000000 0.000000000 0.000000000
9.000000 0.000000000 0.000000000 0.000000000 0.000000000 -0.061468241 0.115841792 0.040885259 0.021694631
 0.000000000 0.000000000 0.000000000 0.000000000 0.040332895 -0.021021974 0.059562376 0.114276758
 -0.061468241 0.115841792 0.040332895 -0.021021974 0.000000000 0.000000000 0.000000000 0.000000000
 0.040885259 0.021694631 0.059562376 0.114276758 0.000000000 0.000000000 0.000000000 0.000000000
9.050000 0.000000000 0.000000000 0.000000000 0.000000000 -0.007119780 0.129611816 0.046020187 0.002527961
 0.000000000 0.000000000 0.000000000 0.000000000 0.027482356 -0.035998367 0.101386240 0.077401644
 -0.007119780 0.129611816 0.027482356 -0.035998367 0.000000000 0.000000000 0.000000000 0.000000000
 0.046020187 0.002527961 0.101386240 0.077401644 0.000000000 0.000000000 0.000000000 0.000000000
9.100000 0.000000000 0.000000000 0.000000000 0.000000000 0.047428340 0.119418902 0.042654722 -0.016940724
 0.000000000 0.000000000 0.000000000 0.000000000 0.009568621 -0.044071260 0.123384734 0.026788927
 0.047428340 0.119418902 0.009568621 -0.044071260 0.000000000 0.000000000 0.000000000 0.000000000
 0.042654722 -0.016940724 0.123384734 0.026788927 0.000000000 0.000000000 0.000000000 0.000000000
9.150000 0.000000000 0.000000000 0.000000000 0.000000000 0.092209361 0.087613380 0.031480587 -0.033131981
 0.000000000 0.000000000 0.000000000 0.000000000 -0.009993314 -0.043781438 0.121847781 -0.027812316
 0.092209361 0.087613380 -0.009993314 -0.043781438 0.000000000 0.000000000 0.000000000 0.000000000
 0.031480587 -0.033131981 0.121847781 -0.027812316 0.000000000 0.000000000 0.000000000 0.000000000
9.200000 0.000000000 0.000000000 0.000000000 0.000000000 0.119244014 0.040442730 0.014617714 -0.043099832
 0.000000000 0.000000000 0.000000000 0.000000000 -0.027508540 -0.035255914 0.097542300 -0.076107692
 0.119244014 0.040442730 -0.027508540 -0.035255914 0.000000000 0.000000000 0.000000000 0.000000000
 0.014617714 -0.043099832 0.097542300 -0.076107692 0.000000000 0.000000000 0.000000000 0.000000000
9.250000 0.000000000 0.000000000 0.000000000 0.000000000 0.123955382 -0.013168748 -0.004787827 -0.045067075
 0.000000000 0.000000000 0.000000000 0.000000000 -0.039699730 -0.020169788 0.055476281 -0.109192692
 0.123955382 -0.013168748 -0.039699730 -0.020169788 0.000000000 0.000000000 0.000000000 0.000000000
 -0.004787827 -0.045067075 0.055476281 -0.109192692 0.000000000 0.000000000 0.000000000 0.000000000
9.300000 0.000000000 0.000000000 0.000000000 0.000000000 0.105933929 -0.063303118 -0.023150619 -0.038741157
 0.000000000 0.000000000 0.000000000 0.000000000 -0.044319737 -0.001417336 0.003875567 -0.121188015
 0.105933929 -0.063303118 -0.044319737 -0.001417336 0.000000000 0.000000000 0.000000000 0.000000000
 -0.023150619 -0.038741157 0.003875567 -0.121188015 0.000000000 0.000000000 0.000000000 0.000000000
9.350000 0.000000000 0.000000000 0.000000000 0.000000000 0.068926794 -0.100878346 -0.037108009 -0.025354659
 0.000000000 0.000000000 0.000000000 0.000000000 -0.040564920 0.017443110 -0.047419200 -0.110275981
 0.068926794 -0.100878346 -0.040564920 0.017443110 0.000000000 0.000000000 0.000000000 0.000000000
 -0.037108009 -0.025354659 -0.047419200 -0.110275981 0.000000000 0.000000000 0.000000000 0.000000000
9.400000 0.000000000 0.000000000 0.000000000 0.000000000 0.020069458 -0.119287750 -0.044135346 -0.007425511
 0.000000000 0.000000000 0.000000000 0.000000000 -0.029213354 0.032864083 -0.088824102 -0.078957017
 0.020069458 -0.119287750 -0.029213354 0.032864083 0.000000000 0.000000000 0.000000000 0.000000000
 -0.044135346 -0.007425511 -0.088824102 -0.078957017 0.000000000 0.000000000 0.000000000 0.000000000
9.450000 0.000000000 0.000000000 0.000000000 0.000000000 -0.031484537 -0.115554507 -0.043001887 0.011716501
 0.000000000 0.000000000 0.000000000 0.000000000 -0.012464488 0.041975736 -0.112797037 -0.033494524
 -0.031484537 -0.115554507 -0.012464488 0.041975736 0.000000000 0.000000000 0.000000000 0.000000000
 -0.043001887 0.011716501 -0.112797037 -0.033494524 0.000000000 0.000000000 0.000000000 0.000000000
9.500000 0.000000000 0.000000000 0.000000000 0.000000000 -0.076273690 -0.090800883 -0.033985190 0.028547914
 0.000000000 0.000000000 0.000000000 0.000000000 0.006486872 0.043119222 -0.115204989 0.017331481
 -0.076273690 -0.090800883 0.006486872 0.043119222 0.000000000 0.000000000 0.000000000 0.000000000
 -0.033985190 0.028547914 -0.115204989 0.017331481 0.000000000 0.000000000 0.000000000 0.000000000
9.550000 0.000000000 0.000000000 0.000000000 0.000000000 -0.106259908 -0.049960771 -0.018806889 0.039999750
 0.000000000 0.000000000 0.000000000 0.000000000 0.024059767 0.036147710 -0.096026909 0.063915116
 -0.106259908 -0.049960771 0.024059767 0.036147710 0.000000000 0.000000000 0.000000000 0.000000000
 -0.018806889 0.039999750 -0.096026909 0.063915116 0.000000000 0.000000000 0.000000000 0.000000000
9.600000 0.000000000 0.000000000 0.000000000 0.000000000 -0.116265300 -0.000803418 -0.000304163 0.044016498
 0.000000000 0.000000000 0.000000000 0.000000000 0.036963371 0.022440611 -0.059274691 0.097635151
 -0.116265300 -0.000803418 0.036963371 0.022440611 0.000000000 0.000000000 0.000000000 0.000000000
 -0.000304163 0.044016498 -0.059274691 0.097635151 0.000000000 0.000000000 0.000000000 0.000000000
9.650000 0.000000000 0.000000000 0.000000000 0.000000000 -0.104858672 0.047539766 0.018100451 0.039924245
 0.000000000 0.000000000 0.000000000 0.000000000 0.042812695 0.004630966 -0.012162959 0.112445014
 -0.104858672 0.047539766 0.042812695 0.004630966 0.000000000 0.000000000 0.000000000 0.000000000
 0.018100451 0.039924245 -0.012162959 0.112445014 0.000000000 0.000000000 0.000000000 0.000000000
9.700000 0.000000000 0.000000000 0.000000000 0.000000000 -0.074541469 0.086266876 0.033031858 0.028542163
 0.000000000 0.000000000 0.000000000 0.000000000 0.040568645 -0.013900195 0.036302118 0.105950149
 -0.074541469 0.086266876 0.040568645 -0.013900195 0.000000000 0.000000000 0.000000000 0.000000000
 0.033031858 0.028542163 0.036302118 0.105950149 0.000000000 0.000000000 0.000000000 0.000000000
9.750000 0.000000000 0.000000000 0.000000000 0.000000000 -0.031213490 0.108503149 0.041780876 0.012019255
 0.000000000 0.000000000 0.000000000 0.000000000 0.030721386 -0.029665464 0.077039943 0.079782126
 -0.031213490 0.108503149 0.030721386 -0.029665464 0.000000000 0.000000000 0.000000000 0.000000000
 0.041780876 0.012019255 0.077039943 0.079782126 0.000000000 0.000000000 0.000000000 0.000000000
9.800000 0.000000000 0.000000000 0.000000000 0.000000000 0.016969783 0.110515523 0.042795152 -0.006571244
 0.000000000 0.000000000 0.000000000 0.000000000 0.015184904 -0.039726926 0.102592041 0.039213965
 0.016969783 0.110515523 0.015184904 -0.039726926 0.000000000 0.000000000 0.000000000 0.000000000
 0.042795152 -0.006571244 0.102592041 0.039213965 0.000000000 0.000000000 0.000000000 0.000000000
9.850000 0.000000000 0.000000000 0.000000000 0.000000000 0.061127922 0.092330683 0.035953682 -0.023803288
 0.000000000 0.000000000 0.000000000 0.000000000 -0.003074826 -0.042243037 0.108482032 -0.007896292
 0.061127922 0.092330683 -0.003074826 -0.042243037 0.000000000 0.000000000 0.000000000 0.000000000
 0.035953682 -0.023803288 0.108482032 -0.007896292 0.000000000 0.000000000 0.000000000 0.000000000
9.900000 0.000000000 0.000000000 0.000000000 0.000000000 0.093287884 0.057656021 0.022576576 -0.036529073
 0.000000000 0.000000000 0.000000000 0.000000000 -0.020605874 -0.036804837 0.093992128 -0.052623245
 0.093287884 0.057656021 -0.020605874 -0.036804837 0.000000000 0.000000000 0.000000000 0.000000000
 0.022576576 -0.036529073 0.093992128 -0.052623245 0.000000000 0.000000000 0.000000000 0.000000000
9.950000 0.000000000 0.000000000 0.000000000 0.000000000 0.107818726 0.013131834 0.005170649 -0.042453536
 0.000000000 0.000000000 0.000000000 0.000000000 -0.034122613 -0.024500280 0.062223060 -0.086660781
 0.107818726 0.013131834 -0.034122613 -0.024500280 0.000000000 0.000000000 0.000000000 0.000000000
 0.005170649 -0.042453536 0.062223060 -0.086660781 0.000000000 0.000000000 0.000000000 0.000000000
10.000000 0.000000000 0.000000000 0.000000000 0.000000000 0.102411476 -0.032935784 -0.013040199 -0.040547572
 0.000000000 0.000000000 0.000000000 0.000000000 -0.041121013 -0.007697047 0.019440521 -0.103859823
 0.102411476 -0.032935784 -0.041121013 -0.007697047 0.000000000 0.000000000 0.000000000 0.000000000
 -0.013040199 -0.040547572 0.019440521 -0.103859823 0.000000000 0.000000000 0.000000000 0.000000000
10.050000 0.000000000 0.000000000 0.000000000 0.000000000 0.078434824 -0.072120432 -0.028711871 -0.031225694
 0.000000000 0.000000000 0.000000000 0.000000000 -0.040341859 0.010412894 -0.026155815 -0.101333429
 0.078434824 -0.072120432 -0.040341859 0.010412894 0.000000000 0.000000000 0.000000000 0.000000000
 -0.028711871 -0.031225694 -0.026155815 -0.101333429 0.000000000 0.000000000 0.000000000 0.000000000
10.100000 0.000000000 0.000000000 0.000000000 0.000000000 0.040614244 -0.097412459 -0.038993762 -0.016257696
 0.000000000 0.000000000 0.000000000 0.000000000 -0.031996328 0.026419408 -0.065999774 -0.079931786
 0.040614244 -0.097412459 -0.031996328 0.026419408 0.000000000 0.000000000 0.000000000 0.000000000
 -0.038993762 -0.016257696 -0.065999774 -0.079931786 0.000000000 0.000000000 0.000000000 0.000000000
10.150000 0.000000000 0.000000000 0.000000000 0.000000000 -0.003893713 -0.104468040 -0.042046723 0.001567158
 0.000000000 0.000000000 0.000000000 0.000000000 -0.017713716 0.037335953 -0.092763803 -0.044010974
 -0.003893713 -0.104468040 -0.017713716 0.037335953 0.000000000 0.000000000 0.000000000 0.000000000
 -0.042046723 0.001567158 -0.092763803 -0.044010974 0.000000000 0.000000000 0.000000000 0.000000000
10.200000 0.000000000 0.000000000 0.000000000 0.000000000 -0.046851645 -0.092348629 -0.037371278 0.018959738
 0.000000000 0.000000000 0.000000000 0.000000000 -0.000223587 0.041156282 -0.101701799 -0.000552509
 -0.046851645 -0.092348629 -0.000223587 0.041156282 0.000000000 0.000000000 0.000000000 0.000000000
 -0.037371278 0.018959738 -0.101701799 -0.000552509 0.000000000 0.000000000 0.000000000 0.000000000
10.250000 0.000000000 0.000000000 0.000000000 0.000000000 -0.080462013 -0.063626207 -0.025887682 0.032737689
 0.000000000 0.000000000 0.000000000 0.000000000 0.017165702 0.037222419 -0.091484489 0.042189507
 -0.080462013 -0.063626207 0.017165702 0.037222419 0.000000000 0.000000000 0.000000000 0.000000000
 -0.025887682 0.032737689 -0.091484489 0.042189507 0.000000000 0.000000000 0.000000000 0.000000000
10.300000 0.000000000 0.000000000 0.000000000 0.000000000 -0.098778372 -0.023847565 -0.009755325 0.040407274
 0.000000000 0.000000000 0.000000000 0.000000000 0.031192518 0.026336575 -0.064381578 0.076252266
 -0.098778372 -0.023847565 0.031192518 0.026336575 0.000000000 0.000000000 0.000000000 0.000000000
 -0.009755325 0.040407274 -0.064381578 0.076252266 0.000000000 0.000000000 0.000000000 0.000000000
10.350000 0.000000000 0.000000000 0.000000000 0.000000000 -0.098752468 0.019532471 0.008033161 0.040614138
 0.000000000 0.000000000 0.000000000 0.000000000 0.039253290 0.010598260 -0.025769458 0.095443593
 -0.098752468 0.019532471 0.039253290 0.010598260 0.000000000 0.000000000 0.000000000 0.000000000
 0.008033161 0.040614138 -0.025769458 0.095443593 0.000000000 0.000000000 0.000000000 0.000000000
10.400000 0.000000000 0.000000000 0.000000000 0.000000000 -0.080733813 0.058544507 0.024206844 0.033381626
 0.000000000 0.000000000 0.000000000 0.000000000 0.039885187 -0.007000475 0.016930723 0.096462744
 -0.080733813 0.058544507 0.039885187 -0.007000475 0.000000000 0.000000000 0.000000000 0.000000000
 0.024206844 0.033381626 0.016930723 0.096462744 0.000000000 0.000000000 0.000000000 0.000000000
10.450000 0.000000000 0.000000000 0.000000000 0.000000000 -0.048341403 0.086164963 0.035817618 0.020094872
 0.000000000 0.000000000 0.000000000 0.000000000 0.033030759 -0.023143652 0.055675726 0.079460730
 -0.048341403 0.086164963 0.033030759 -0.023143652 0.000000000 0.000000000 0.000000000 0.000000000
 0.035817618 0.020094872 0.055675726 0.079460730 0.000000000 0.000000000 0.000000000 0.000000000
10.500000 0.000000000 0.000000000 0.000000000 0.000000000 -0.007743034 0.097576464 0.040777104 0.003235806
 0.000000000 0.000000000 0.000000000 0.000000000 0.020036832 -0.034815834 0.083311604 0.047946593
 -0.007743034 0.097576464 0.020036832 -0.034815834 0.000000000 0.000000000 0.000000000 0.000000000
 0.040777104 0.003235806 0.083311604 0.047946593 0.000000000 0.000000000 0.000000000 0.000000000
10.550000 0.000000000 0.000000000 0.000000000 0.000000000 0.033515375 0.091002841 0.038231646 -0.014080307
 0.000000000 0.000000000 0.000000000 0.000000000 0.003390178 -0.039864921 0.094890527 0.008069644
 0.033515375 0.091002841 0.003390178 -0.039864921 0.000000000 0.000000000 0.000000000 0.000000000
 0.038231646 -0.014080307 0.094890527 0.008069644 0.000000000 0.000000000 0.000000000 0.000000000
10.600000 0.000000000 0.000000000 0.000000000 0.000000000 0.067908929 0.067975032 0.028708186 -0.028680268
 0.000000000 0.000000000 0.000000000 0.000000000 -0.013758238 -0.037398316 0.088551460 -0.032576656
 0.067908929 0.067975032 -0.013758238 -0.037398316 0.000000000 0.000000000 0.000000000 0.000000000
 0.028708186 -0.028680268 0.088551460 -0.032576656 0.000000000 0.000000000 0.000000000 0.000000000
10.650000 0.000000000 0.000000000 0.000000000 0.000000000 0.089302607 0.032990375 0.014006302 -0.037914066
 0.000000000 0.000000000 0.000000000 0.000000000 -0.028189434 -0.027939669 0.065808961 -0.066397256
 0.089302607 0.032990375 -0.028189434 -0.027939669 0.000000000 0.000000000 0.000000000 0.000000000
 0.014006302 -0.037914066 0.065808961 -0.066397256 0.000000000 0.000000000 0.000000000 0.000000000
10.700000 0.000000000 0.000000000 0.000000000 0.000000000 0.094041474 -0.007361233 -0.003141654 -0.040135369
 0.000000000 0.000000000 0.000000000 0.000000000 -0.037220282 -0.013318888 0.031207584 -0.087211111
 0.094041474 -0.007361233 -0.037220282 -0.013318888 0.000000000 0.000000000 0.000000000 0.000000000
 -0.003141654 -0.040135369 0.031207584 -0.087211111 0.000000000 0.000000000 0.000000000 0.000000000
10.750000 0.000000000 0.000000000 0.000000000 0.000000000 0.081569336 -0.045635327 -0.019578185 -0.034994371
 0.000000000 0.000000000 0.000000000 0.000000000 -0.039201857 0.003681683 -0.008581736 -0.091376682
 0.081569336 -0.045635327 -0.039201857 0.003681683 0.000000000 0.000000000 0.000000000 0.000000000
 -0.019578185 -0.034994371 -0.008581736 -0.091376682 0.000000000 0.000000000 0.000000000 0.000000000
10.800000 0.000000000 0.000000000 0.000000000 0.000000000 0.054472239 -0.074903076 -0.032301764 -0.023491017
 0.000000000 0.000000000 0.000000000 0.000000000 -0.033819811 0.019856560 -0.046044465 -0.078423207
 0.054472239 -0.074903076 -0.033819811 0.019856560 0.000000000 0.000000000 0.000000000 0.000000000
 -0.032301764 -0.023491017 -0.046044465 -0.078423207 0.000000000 0.000000000 0.000000000 0.000000000
10.850000 0.000000000 0.000000000 0.000000000 0.000000000 0.017949747 -0.090002106 -0.039014547 -0.007780943
 0.000000000 0.000000000 0.000000000 0.000000000 -0.022142189 0.032181220 -0.074238400 -0.051079502
 0.017949747 -0.090002106 -0.022142189 0.032181220 0.000000000 0.000000000 0.000000000 0.000000000
 -0.039014547 -0.007780943 -0.074238400 -0.051079502 0.000000000 0.000000000 0.000000000 0.000000000
10.900000 0.000000000 0.000000000 0.000000000 0.000000000 -0.021179172 -0.088442825 -0.038536822 0.009228312
 0.000000000 0.000000000 0.000000000 0.000000000 -0.006407887 0.038377239 -0.088076579 -0.014706237
 -0.021179172 -0.088442825 -0.006407887 0.038377239 0.000000000 0.000000000 0.000000000 0.000000000
 -0.038536822 0.009228312 -0.088076579 -0.014706237 0.000000000 0.000000000 0.000000000 0.000000000
10.950000 0.000000000 0.000000000 0.000000000 0.000000000 -0.055746237 -0.070811931 -0.031013536 0.024415206
 0.000000000 0.000000000 0.000000000 0.000000000 0.010402427 0.037332947 -0.085240783 0.023751434
 -0.055746237 -0.070811931 0.010402427 0.037332947 0.000000000 0.000000000 0.000000000 0.000000000
 -0.031013536 0.024415206 -0.085240783 0.023751434 0.000000000 0.000000000 0.000000000 0.000000000
11.000000 0.000000000 0.000000000 0.000000000 0.000000000 -0.079543948 -0.040609151 -0.017876914 0.035016747
 0.000000000 0.000000000 0.000000000 0.000000000 0.025130744 0.029302042 -0.066562440 0.057086929
 -0.079543948 -0.040609151 0.025130744 0.029302042 0.000000000 0.000000000 0.000000000 0.000000000
 -0.017876914 0.035016747 -0.066562440 0.057086929 0.000000000 0.000000000 0.000000000 0.000000000
11.050000 0.000000000 0.000000000 0.000000000 0.000000000 -0.088436830 -0.003557399 -0.001574046 0.039130732
 0.000000000 0.000000000 0.000000000 0.000000000 0.035034645 0.015844852 -0.035809924 0.079179530
 -0.088436830 -0.003557399 0.035034645 0.015844852 0.000000000 0.000000000 0.000000000 0.000000000
 -0.001574046 0.039130732 -0.035809924 0.079179530 0.000000000 0.000000000 0.000000000 0.000000000
11.100000 0.000000000 0.000000000 0.000000000 0.000000000 -0.081075560 0.033478506 0.014888791 0.036056480
 0.000000000 0.000000000 0.000000000 0.000000000 0.038297495 -0.000474591 0.001067151 0.086114641
 -0.081075560 0.033478506 0.038297495 -0.000474591 0.000000000 0.000000000 0.000000000 0.000000000
 0.014888791 0.036056480 0.001067151 0.086114641 0.000000000 0.000000000 0.000000000 0.000000000
11.150000 0.000000000 0.000000000 0.000000000 0.000000000 -0.059091545 0.063760871 0.028500251 0.026413125
 0.000000000 0.000000000 0.000000000 0.000000000 0.034361052 -0.016576901 0.037085908 0.076872680
 -0.059091545 0.063760871 0.034361052 -0.016576901 0.000000000 0.000000000 0.000000000 0.000000000
 0.028500251 0.026413125 0.037085908 0.076872680 0.000000000 0.000000000 0.000000000 0.000000000
11.200000 0.000000000 0.000000000 0.000000000 0.000000000 -0.026746158 0.081901840 0.036794402 0.012015711
 0.000000000 0.000000000 0.000000000 0.000000000 0.024019738 -0.029448147 0.065549575 0.053466305
 -0.026746158 0.081901840 0.024019738 -0.029448147 0.000000000 0.000000000 0.000000000 0.000000000
 0.036794402 0.012015711 0.065549575 0.053466305 0.000000000 0.000000000 0.000000000 0.000000000
11.250000 0.000000000 0.000000000 0.000000000 0.000000000 0.009891637 0.084818472 0.038297009 -0.004466245
 0.000000000 0.000000000 0.000000000 0.000000000 0.009260886 -0.036703607 0.081289479 0.020510589
 0.009891637 0.084818472 0.009260886 -0.036703607 0.000000000 0.000000000 0.000000000 0.000000000
 0.038297009 -0.004466245 0.081289479 0.020510589 0.000000000 0.000000000 0.000000000 0.000000000
11.300000 0.000000000 0.000000000 0.000000000 0.000000000 0.044081215 0.072251572 0.032786932 -0.020003548
 0.000000000 0.000000000 0.000000000 0.000000000 -0.007116988 -0.037029119 0.081599953 -0.015683492
 0.044081215 0.072251572 -0.007116988 -0.037029119 0.000000000 0.000000000 0.000000000 0.000000000
 0.032786932 -0.020003548 0.081599953 -0.015683492 0.000000000 0.000000000 0.000000000 0.000000000
11.350000 0.000000000 0.000000000 0.000000000 0.000000000 0.069647695 0.046761960 0.021326426 -0.031763775
 0.000000000 0.000000000 0.000000000 0.000000000 -0.022034630 -0.030418419 0.066697764 -0.048314823
 0.069647695 0.046761960 -0.022034630 -0.030418419 0.000000000 0.000000000 0.000000000 0.000000000
 0.021326426 -0.031763775 0.066697764 -0.048314823 0.000000000 0.000000000 0.000000000 0.000000000
11.400000 0.000000000 0.000000000 0.000000000 0.000000000 0.082094184 0.013214363 0.006056705 -0.037627256
 0.000000000 0.000000000 0.000000000 0.000000000 -0.032710694 -0.018163751 0.039629208 -0.071367356
 0.082094184 0.013214363 -0.032710694 -0.018163751 0.000000000 0.000000000 0.000000000 0.000000000
 0.006056705 -0.037627256 0.039629208 -0.071367356 0.000000000 0.000000000 0.000000000 0.000000000
11.450000 0.000000000 0.000000000 0.000000000 0.000000000 0.079389075 -0.022148027 -0.010201945 -0.036568628
 0.000000000 0.000000000 0.000000000 0.000000000 -0.037179917 -0.002603546 0.005652197 -0.080716160
 0.079389075 -0.022148027 -0.037179917 -0.002603546 0.000000000 0.000000000 0.000000000 0.000000000
 -0.010201945 -0.036568628 0.005652197 -0.080716160 0.000000000 0.000000000 0.000000000 0.000000000
11.500000 0.000000000 0.000000000 0.000000000 0.000000000 0.062291274 -0.052862833 -0.024470857 -0.028835399
 0.000000000 0.000000000 0.000000000 0.000000000 -0.034654361 0.013323629 -0.028782187 -0.074861608
 0.062291274 -0.052862833 -0.034654361 0.013323629 0.000000000 0.000000000 0.000000000 0.000000000
 -0.024470857 -0.028835399 -0.028782187 -0.074861608 0.000000000 0.000000000 0.000000000 0.000000000
11.550000 0.000000000 0.000000000 0.000000000 0.000000000 0.034162619 -0.073426827 -0.034158396 -0.015892560
 0.000000000 0.000000000 0.000000000 0.000000000 -0.025661432 0.026633788 -0.057251943 -0.055161768
 0.034162619 -0.073426827 -0.025661432 0.026633788 0.000000000 0.000000000 0.000000000 0.000000000
 -0.034158396 -0.015892560 -0.057251943 -0.055161768 0.000000000 0.000000000 0.000000000 0.000000000
11.600000 0.000000000 0.000000000 0.000000000 0.000000000 0.000310751 -0.080278973 -0.037530268 -0.000145276
 0.000000000 0.000000000 0.000000000 0.000000000 -0.011934668 0.034856258 -0.074559142 -0.025528805
 0.000310751 -0.080278973 -0.011934668 0.034856258 0.000000000 0.000000000 0.000000000 0.000000000
 -0.037530268 -0.000145276 -0.074559142 -0.025528805 0.000000000 0.000000000 0.000000000 0.000000000
11.650000 0.000000000 0.000000000 0.000000000 0.000000000 -0.033009784 -0.072413138 -0.034019479 0.015507899
 0.000000000 0.000000000 0.000000000 0.000000000 0.003920227 0.036491869 -0.077675813 0.008344512
 -0.033009784 -0.072413138 0.003920227 0.036491869 0.000000000 0.000000000 0.000000000 0.000000000
 -0.034019479 0.015507899 -0.077675813 0.008344512 0.000000000 0.000000000 0.000000000 0.000000000
11.700000 0.000000000 0.000000000 0.000000000 0.000000000 -0.059750705 -0.051515820 -0.024320623 0.028208313
 0.000000000 0.000000000 0.000000000 0.000000000 0.018919838 0.031285702 -0.066269215 0.040075905
 -0.059750705 -0.051515820 0.018919838 0.031285702 0.000000000 0.000000000 0.000000000 0.000000000
 -0.024320623 0.028208313 -0.066269215 0.040075905 0.000000000 0.000000000 0.000000000 0.000000000
11.750000 0.000000000 0.000000000 0.000000000 0.000000000 -0.075165288 -0.021612341 -0.010253051 0.035658955
 0.000000000 0.000000000 0.000000000 0.000000000 0.030264163 0.020264911 -0.042716280 0.063793641
 -0.075165288 -0.021612341 0.030264163 0.020264911 0.000000000 0.000000000 0.000000000 0.000000000
 -0.010253051 0.035658955 -0.042716280 0.063793641 0.000000000 0.000000000 0.000000000 0.000000000
11.800000 0.000000000 0.000000000 0.000000000 0.000000000 -0.076647909 0.011705519 0.005580237 0.036539474
 0.000000000 0.000000000 0.000000000 0.000000000 0.035858943 0.005536427 -0.011613619 0.075220378
 -0.076647909 0.011705519 0.035858943 0.005536427 0.000000000 0.000000000 0.000000000 0.000000000
 0.005580237 0.036539474 -0.011613619 0.075220378 0.000000000 0.000000000 0.000000000 0.000000000
11.850000 0.000000000 0.000000000 0.000000000 0.000000000 -0.064169940 0.042322795 0.020274053 0.030739576
 0.000000000 0.000000000 0.000000000 0.000000000 0.034701822 -0.010115671 0.021116818 0.072441267
 -0.064169940 0.042322795 0.034701822 -0.010115671 0.000000000 0.000000000 0.000000000 0.000000000
 0.020274053 0.030739576 0.021116818 0.072441267 0.000000000 0.000000000 0.000000000 0.000000000
11.900000 0.000000000 0.000000000 0.000000000 0.000000000 -0.040239979 0.064721314 0.031153830 0.019369654
 0.000000000 0.000000000 0.000000000 0.000000000 0.027061219 -0.023756213 0.049352947 0.056219015
 -0.040239979 0.064721314 0.027061219 -0.023756213 0.000000000 0.000000000 0.000000000 0.000000000
 0.031153830 0.019369654 0.049352947 0.056219015 0.000000000 0.000000000 0.000000000 0.000000000
11.950000 0.000000000 0.000000000 0.000000000 0.000000000 -0.009404005 0.074971679 0.036262099 0.004548504
 0.000000000 0.000000000 0.000000000 0.000000000 0.014416149 -0.032849070 0.067915261 0.029805305
 -0.009404005 0.074971679 0.014416149 -0.032849070 0.000000000 0.000000000 0.000000000 0.000000000
 0.036262099 0.004548504 0.067915261 0.029805305 0.000000000 0.000000000 0.000000000 0.000000000
12.000000 0.000000000 0.000000000 0.000000000 0.000000000 0.022615714 0.071419438 0.034710229 -0.010991358
 0.000000000 0.000000000 0.000000000 0.000000000 -0.000829860 -0.035728309 0.073514230 -0.001707512
 0.022615714 0.071419438 -0.000829860 -0.035728309 0.000000000 0.000000000 0.000000000 0.000000000
 0.034710229 -0.010991358 0.073514230 -0.001707512 0.000000000 0.000000000 0.000000000 0.000000000
12.050000 0.000000000 0.000000000 0.000000000 0.000000000 0.049980317 0.054946199 0.026832299 -0.024407272
 0.000000000 0.000000000 0.000000000 0.000000000 -0.015805450 -0.031902913 0.065329616 -0.032365822
 0.049980317 0.054946199 -0.015805450 -0.031902913 0.000000000 0.000000000 0.000000000 0.000000000
 0.026832299 -0.024407272 0.065329616 -0.032365822 0.000000000 0.000000000 0.000000000 0.000000000
12.100000 0.000000000 0.000000000 0.000000000 0.000000000 0.067796818 0.028765743 0.014114611 -0.033266156
 0.000000000 0.000000000 0.000000000 0.000000000 -0.027711976 -0.022139426 0.045120411 -0.056477333
 0.067796818 0.028765743 -0.027711976 -0.022139426 0.000000000 0.000000000 0.000000000 0.000000000
 0.014114611 -0.033266156 0.045120411 -0.056477333 0.000000000 0.000000000 0.000000000 0.000000000
12.150000 0.000000000 0.000000000 0.000000000 0.000000000 0.072990447 -0.002199787 -0.001084529 -0.035985403
 0.000000000 0.000000000 0.000000000 0.000000000 -0.034346204 -0.008308851 0.016853132 -0.069665602
 0.072990447 -0.002199787 -0.034346204 -0.008308851 0.000000000 0.000000000 0.000000000 0.000000000
 -0.001084529 -0.035985403 0.016853132 -0.069665602 0.000000000 0.000000000 0.000000000 0.000000000
12.200000 0.000000000 0.000000000 0.000000000 0.000000000 0.064831813 -0.032243085 -0.015971952 -0.032115122
 0.000000000 0.000000000 0.000000000 0.000000000 -0.034507607 0.006971726 -0.014074043 -0.069661597
 0.064831813 -0.032243085 -0.034507607 0.006971726 0.000000000 0.000000000 0.000000000 0.000000000
 -0.015971952 -0.032115122 -0.014074043 -0.069661597 0.000000000 0.000000000 0.000000000 0.000000000
12.250000 0.000000000 0.000000000 0.000000000 0.000000000 0.045029196 -0.055921525 -0.027832715 -0.022411492
 0.000000000 0.000000000 0.000000000 0.000000000 -0.028215030 0.020834162 -0.041860023 -0.056689673
 0.045029196 -0.055921525 -0.028215030 0.020834162 0.000000000 0.000000000 0.000000000 0.000000000
 -0.027832715 -0.022411492 -0.041860023 -0.056689673 0.000000000 0.000000000 0.000000000 0.000000000
12.300000 0.000000000 0.000000000 0.000000000 0.000000000 0.017376727 -0.069040934 -0.034524909 -0.008689481
 0.000000000 0.000000000 0.000000000 0.000000000 -0.016693753 0.030697352 -0.061386805 -0.033383212
 0.017376727 -0.069040934 -0.016693753 0.030697352 0.000000000 0.000000000 0.000000000 0.000000000
 -0.034524909 -0.008689481 -0.061386805 -0.033383212 0.000000000 0.000000000 0.000000000 0.000000000
12.350000 0.000000000 0.000000000 0.000000000 0.000000000 -0.012970060 -0.069395880 -0.034866078 0.006516455
 0.000000000 0.000000000 0.000000000 0.000000000 -0.002137160 0.034747476 -0.069159821 -0.004253708
 -0.012970060 -0.069395880 -0.002137160 0.034747476 0.000000000 0.000000000 0.000000000 0.000000000
 -0.034866078 0.006516455 -0.069159821 -0.004253708 0.000000000 0.000000000 0.000000000 0.000000000
12.400000 0.000000000 0.000000000 0.000000000 0.000000000 -0.040453416 -0.057136314 -0.028841605 0.020420314
 0.000000000 0.000000000 0.000000000 0.000000000 0.012710664 0.032271125 -0.063930323 0.025180308
 -0.040453416 -0.057136314 0.012710664 0.032271125 0.000000000 0.000000000 0.000000000 0.000000000
 -0.028841605 0.020420314 -0.063930323 0.025180308 0.000000000 0.000000000 0.000000000 0.000000000
12.450000 0.000000000 0.000000000 0.000000000 0.000000000 -0.060129238 -0.034700441 -0.017598447 0.030494748
 0.000000000 0.000000000 0.000000000 0.000000000 0.025072018 0.023780193 -0.046889546 0.049436754
 -0.060129238 -0.034700441 0.025072018 0.023780193 0.000000000 0.000000000 0.000000000 0.000000000
 -0.017598447 0.030494748 -0.046889546 0.049436754 0.000000000 0.000000000 0.000000000 0.000000000
12.500000 0.000000000 0.000000000 0.000000000 0.000000000 -0.068554284 -0.006333400 -0.003227029 0.034930152
 0.000000000 0.000000000 0.000000000 0.000000000 0.032654953 0.010906840 -0.021405879 0.064088953
 -0.068554284 -0.006333400 0.032654953 0.010906840 0.000000000 0.000000000 0.000000000 0.000000000
 -0.003227029 0.034930152 -0.021405879 0.064088953 0.000000000 0.000000000 0.000000000 0.000000000
12.550000 0.000000000 0.000000000 0.000000000 0.000000000 -0.064385965 0.022713853 0.011627268 0.032959308
 0.000000000 0.000000000 0.000000000 0.000000000 0.034077870 -0.003910064 0.007638306 0.066571074
 -0.064385965 0.022713853 0.034077870 -0.003910064 0.000000000 0.000000000 0.000000000 0.000000000
 0.011627268 0.032959308 0.007638306 0.066571074 0.000000000 0.000000000 0.000000000 0.000000000
12.600000 0.000000000 0.000000000 0.000000000 0.000000000 -0.048590740 0.047154662 0.024250853 0.024989404
 0.000000000 0.000000000 0.000000000 0.000000000 0.029120760 -0.017886816 0.034780087 0.056623972
 -0.048590740 0.047154662 0.029120760 -0.017886816 0.000000000 0.000000000 0.000000000 0.000000000
 0.024250853 0.024989404 0.034780087 0.056623972 0.000000000 0.000000000 0.000000000 0.000000000
12.650000 0.000000000 0.000000000 0.000000000 0.000000000 -0.024229968 0.062626914 0.032357389 0.012518875
 0.000000000 0.000000000 0.000000000 0.000000000 0.018757492 -0.028417634 0.055001616 0.036304654
 -0.024229968 0.062626914 0.018757492 -0.028417634 0.000000000 0.000000000 0.000000000 0.000000000
 0.032357389 0.012518875 0.055001616 0.036304654 0.000000000 0.000000000 0.000000000 0.000000000
12.700000 0.000000000 0.000000000 0.000000000 0.000000000 0.004130817 0.066469355 0.034501553 -0.002144140
 0.000000000 0.000000000 0.000000000 0.000000000 0.004964803 -0.033560172 0.064655727 0.009564997
 0.004130817 0.066469355 0.004964803 -0.033560172 0.000000000 0.000000000 0.000000000 0.000000000
 0.034501553 -0.002144140 0.064655727 0.009564997 0.000000000 0.000000000 0.000000000 0.000000000
12.750000 0.000000000 0.000000000 0.000000000 0.000000000 0.031275666 0.058176247 0.030336277 -0.016308843
 0.000000000 0.000000000 0.000000000 0.000000000 -0.009654584 -0.032393395 0.062121207 -0.018514713
 0.031275666 0.058176247 -0.009654584 -0.032393395 0.000000000 0.000000000 0.000000000 0.000000000
 0.030336277 -0.016308843 0.062121207 -0.018514713 0.000000000 0.000000000 0.000000000 0.000000000
12.800000 0.000000000 0.000000000 0.000000000 0.000000000 0.052295727 0.039453284 0.020667783 -0.027395355
 0.000000000 0.000000000 0.000000000 0.000000000 -0.022362922 -0.025181938 0.048070477 -0.042689181
 0.052295727 0.039453284 -0.022362922 -0.025181938 0.000000000 0.000000000 0.000000000 0.000000000
 0.020667783 -0.027395355 0.048070477 -0.042689181 0.000000000 0.000000000 0.000000000 0.000000000
12.850000 0.000000000 0.000000000 0.000000000 0.000000000 0.063475045 0.013871313 0.007299905 -0.033404324
 0.000000000 0.000000000 0.000000000 0.000000000 -0.030799882 -0.013317757 0.025306462 -0.058526073
 0.063475045 0.013871313 -0.030799882 -0.013317757 0.000000000 0.000000000 0.000000000 0.000000000
 0.007299905 -0.033404324 0.025306462 -0.058526073 0.000000000 0.000000000 0.000000000 0.000000000
12.900000 0.000000000 0.000000000 0.000000000 0.000000000 0.062945189 -0.013812596 -0.007302285 -0.033277142
 0.000000000 0.000000000 0.000000000 0.000000000 -0.033420624 0.000948350 -0.001793846 -0.063216591
 0.062945189 -0.013812596 -0.033420624 0.000948350 0.000000000 0.000000000 0.000000000 0.000000000
 -0.007302285 -0.033277142 -0.001793846 -0.063216591 0.000000000 0.000000000 0.000000000 0.000000000
12.950000 0.000000000 0.000000000 0.000000000 0.000000000 0.050993801 -0.038538023 -0.020466879 -0.027081928
 0.000000000 0.000000000 0.000000000 0.000000000 -0.029778240 0.014933586 -0.028119132 -0.056070811
 0.050993801 -0.038538023 -0.029778240 0.014933586 0.000000000 0.000000000 0.000000000 0.000000000
 -0.020466879 -0.027081928 -0.028119132 -0.056070811 0.000000000 0.000000000 0.000000000 0.000000000
13.000000 0.000000000 0.000000000 0.000000000 0.000000000 0.029976872 -0.055864495 -0.029803807 -0.015992715
 0.000000000 0.000000000 0.000000000 0.000000000 -0.020599030 0.026027463 -0.048786085 -0.038610987
 0.029976872 -0.055864495 -0.020599030 0.026027463 0.000000000 0.000000000 0.000000000 0.000000000
 -0.029803807 -0.015992715 -0.048786085 -0.038610987 0.000000000 0.000000000 0.000000000 0.000000000
13.050000 0.000000000 0.000000000 0.000000000 0.000000000 0.003857227 -0.062767056 -0.033638476 -0.002067187
 0.000000000 0.000000000 0.000000000 0.000000000 -0.007638108 0.032178810 -0.060043420 -0.014252178
 0.003857227 -0.062767056 -0.007638108 0.032178810 0.000000000 0.000000000 0.000000000 0.000000000
 -0.033638476 -0.002067187 -0.060043420 -0.014252178 0.000000000 0.000000000 0.000000000 0.000000000
13.100000 0.000000000 0.000000000 0.000000000 0.000000000 -0.022540882 -0.058161931 -0.031311736 0.012134985
 0.000000000 0.000000000 0.000000000 0.000000000 0.006656021 0.032274682 -0.059950615 0.012363641
 -0.022540882 -0.058161931 0.006656021 0.032274682 0.000000000 0.000000000 0.000000000 0.000000000
 -0.031311736 0.012134985 -0.059950615 0.012363641 0.000000000 0.000000000 0.000000000 0.000000000
13.150000 0.000000000 0.000000000 0.000000000 0.000000000 -0.044421196 -0.043071421 -0.023292517 0.024022459
 0.000000000 0.000000000 0.000000000 0.000000000 0.019603851 0.026341234 -0.048708965 0.036250515
 -0.044421196 -0.043071421 0.019603851 0.026341234 0.000000000 0.000000000 0.000000000 0.000000000
 -0.023292517 0.024022459 -0.048708965 0.036250515 0.000000000 0.000000000 0.000000000 0.000000000
13.200000 0.000000000 0.000000000 0.000000000 0.000000000 -0.057885206 -0.020404045 -0.011084026 0.031444802
 0.000000000 0.000000000 0.000000000 0.000000000 0.028796939 0.015530411 -0.028589178 0.053010884
 -0.057885206 -0.020404045 0.028796939 0.015530411 0.000000000 0.000000000 0.000000000 0.000000000
 -0.011084026 0.031444802 -0.028589178 0.053010884 0.000000000 0.000000000 0.000000000 0.000000000
13.250000 0.000000000 0.000000000 0.000000000 0.000000000 -0.060624837 0.005603855 0.003057859 0.033081192
 0.000000000 0.000000000 0.000000000 0.000000000 0.032545619 0.001896538 -0.003475609 0.059643342
 -0.060624837 0.005603855 0.032545619 0.001896538 0.000000000 0.000000000 0.000000000 0.000000000
 0.003057859 0.033081192 -0.003475609 0.059643342 0.000000000 0.000000000 0.000000000 0.000000000
13.300000 0.000000000 0.000000000 0.000000000 0.000000000 -0.052315354 0.030178240 0.016541277 0.028675058
 0.000000000 0.000000000 0.000000000 0.000000000 0.030189198 -0.011993901 0.021881915 0.055077781
 -0.052315354 0.030178240 0.030189198 -0.011993901 0.000000000 0.000000000 0.000000000 0.000000000
 0.016541277 0.028675058 0.021881915 0.055077781 0.000000000 0.000000000 0.000000000 0.000000000
13.350000 0.000000000 0.000000000 0.000000000 0.000000000 -0.034642135 0.048882175 0.026913213 0.019073029
 0.000000000 0.000000000 0.000000000 0.000000000 0.022211743 -0.023545200 0.042764889 0.040342946
 -0.034642135 0.048882175 0.022211743 -0.023545200 0.000000000 0.000000000 0.000000000 0.000000000
 0.026913213 0.019073029 0.042764889 0.040342946 0.000000000 0.000000000 0.000000000 0.000000000
13.400000 0.000000000 0.000000000 0.000000000 0.000000000 -0.010962436 0.058415264 0.032305513 0.006062578
 0.000000000 0.000000000 0.000000000 0.000000000 0.010143319 -0.030617256 0.055362534 0.018341286
 -0.010962436 0.058415264 0.010143319 -0.030617256 0.000000000 0.000000000 0.000000000 0.000000000
 0.032305513 0.006062578 0.055362534 0.018341286 0.000000000 0.000000000 0.000000000 0.000000000
13.450000 0.000000000 0.000000000 0.000000000 0.000000000 0.014330581 0.057194018 0.031771053 -0.007960581
 0.000000000 0.000000000 0.000000000 0.000000000 -0.003733305 -0.031921764 0.057465327 -0.006720669
 0.014330581 0.057194018 -0.003733305 -0.031921764 0.000000000 0.000000000 0.000000000 0.000000000
 0.031771053 -0.007960581 0.057465327 -0.006720669 0.000000000 0.000000000 0.000000000 0.000000000
13.500000 0.000000000 0.000000000 0.000000000 0.000000000 0.036621404 0.045611463 0.025449612 -0.020433472
 0.000000000 0.000000000 0.000000000 0.000000000 -0.016814295 -0.027256495 0.048849806 -0.030135020
 0.036621404 0.045611463 -0.016814295 -0.027256495 0.000000000 0.000000000 0.000000000 0.000000000
 0.025449612 -0.020433472 0.048849806 -0.030135020 0.000000000 0.000000000 0.000000000 0.000000000
13.550000 0.000000000 0.000000000 0.000000000 0.000000000 0.051912941 0.025934121 0.014534510 -0.029094071
 0.000000000 0.000000000 0.000000000 0.000000000 -0.026663135 -0.017535142 0.031288188 -0.047575388
 0.051912941 0.025934121 -0.026663135 -0.017535142 0.000000000 0.000000000 0.000000000 0.000000000
 0.014534510 -0.029094071 0.031288188 -0.047575388 0.000000000 0.000000000 0.000000000 0.000000000
13.600000 0.000000000 0.000000000 0.000000000 0.000000000 0.057541600 0.001860901 0.001047537 -0.032391277
 0.000000000 0.000000000 0.000000000 0.000000000 -0.031464216 -0.004608658 0.008187067 -0.055894719
 0.057541600 0.001860901 -0.031464216 -0.004608658 0.000000000 0.000000000 0.000000000 0.000000000
 0.001047537 -0.032391277 0.008187067 -0.055894719 0.000000000 0.000000000 0.000000000 0.000000000
13.650000 0.000000000 0.000000000 0.000000000 0.000000000 0.052639093 -0.022170676 -0.012535393 -0.029762364
 0.000000000 0.000000000 0.000000000 0.000000000 -0.030357213 0.009087014 -0.016071713 -0.053691171
 0.052639093 -0.022170676 -0.030357213 0.009087014 0.000000000 0.000000000 0.000000000 0.000000000
 -0.012535393 -0.029762364 -0.016071713 -0.053691171 0.000000000 0.000000000 0.000000000 0.000000000
13.700000 0.000000000 0.000000000 0.000000000 0.000000000 0.038261285 -0.041801073 -0.023738595 -0.021728369
 0.000000000 0.000000000 0.000000000 0.000000000 -0.023590753 0.020989818 -0.036960777 -0.041540739
 0.038261285 -0.041801073 -0.023590753 0.020989818 0.000000000 0.000000000 0.000000000 0.000000000
 -0.023738595 -0.021728369 -0.036960777 -0.041540739 0.000000000 0.000000000 0.000000000 0.000000000
13.750000 0.000000000 0.000000000 0.000000000 0.000000000 0.017166093 -0.053538144 -0.030537618 -0.009791366
 0.000000000 0.000000000 0.000000000 0.000000000 -0.012468005 0.028890662 -0.050650722 -0.021858740
 0.017166093 -0.053538144 -0.012468005 0.028890662 0.000000000 0.000000000 0.000000000 0.000000000
 -0.030537618 -0.009791366 -0.050650722 -0.021858740 0.000000000 0.000000000 0.000000000 0.000000000
13.800000 0.000000000 0.000000000 0.000000000 0.000000000 -0.006713686 -0.055376683 -0.031724794 0.003846209
 0.000000000 0.000000000 0.000000000 0.000000000 0.000904106 0.031343138 -0.054710490 0.001578147
 -0.006713686 -0.055376683 0.000904106 0.031343138 0.000000000 0.000000000 0.000000000 0.000000000
 -0.031724794 0.003846209 -0.054710490 0.001578147 0.000000000 0.000000000 0.000000000 0.000000000
13.850000 0.000000000 0.000000000 0.000000000 0.000000000 -0.029002190 -0.047138513 -0.027123366 0.016687778
 0.000000000 0.000000000 0.000000000 0.000000000 0.014013865 0.027927974 -0.048536864 0.024355118
 -0.029002190 -0.047138513 0.014013865 0.027927974 0.000000000 0.000000000 0.000000000 0.000000000
 -0.027123366 0.016687778 -0.048536864 0.024355118 0.000000000 0.000000000 0.000000000 0.000000000
13.900000 0.000000000 0.000000000 0.000000000 0.000000000 -0.045681017 -0.030475929 -0.017612311 0.026399467
 0.000000000 0.000000000 0.000000000 0.000000000 0.024416365 0.019323900 -0.033437623 0.042249504
 -0.045681017 -0.030475929 0.024416365 0.019323900 0.000000000 0.000000000 0.000000000 0.000000000
 -0.017612311 0.026399467 -0.033437623 0.042249504 0.000000000 0.000000000 0.000000000 0.000000000
13.950000 0.000000000 0.000000000 0.000000000 0.000000000 -0.053812269 -0.008543216 -0.004958706 0.031234048
 0.000000000 0.000000000 0.000000000 0.000000000 0.030189244 0.007173157 -0.012358432 0.052012205
 -0.053812269 -0.008543216 0.030189244 0.007173157 0.000000000 0.000000000 0.000000000 0.000000000
 -0.004958706 0.031234048 -0.012358432 0.052012205 0.000000000 0.000000000 0.000000000 0.000000000
14.000000 0.000000000 0.000000000 0.000000000 0.000000000 -0.052054280 0.014598950 0.008510442 0.030344985
 0.000000000 0.000000000 0.000000000 0.000000000 0.030287653 -0.006231811 0.010690150 0.051955931
 -0.052054280 0.014598950 0.030287653 -0.006231811 0.000000000 0.000000000 0.000000000 0.000000000
 0.008510442 0.030344985 0.010690150 0.051955931 0.000000000 0.000000000 0.000000000 0.000000000
14.050000 0.000000000 0.000000000 0.000000000 0.000000000 -0.040879830 0.034734021 0.020335977 0.023934208
 0.000000000 0.000000000 0.000000000 0.000000000 0.024732955 -0.018380711 0.031394410 0.042244095
 -0.040879830 0.034734021 0.024732955 -0.018380711 0.000000000 0.000000000 0.000000000 0.000000000
 0.020335977 0.023934208 0.031394410 0.042244095 0.000000000 0.000000000 0.000000000 0.000000000
14.100000 0.000000000 0.000000000 0.000000000 0.000000000 -0.022462002 0.048256557 0.028375390 0.013207906
 0.000000000 0.000000000 0.000000000 0.000000000 0.014601165 -0.027015302 0.045943526 0.024831446
 -0.022462002 0.048256557 0.014601165 -0.027015302 0.000000000 0.000000000 0.000000000 0.000000000
 0.028375390 0.013207906 0.045943526 0.024831446 0.000000000 0.000000000 0.000000000 0.000000000
14.150000 0.000000000 0.000000000 0.000000000 0.000000000 -0.000253597 0.052816376 0.031190742 0.000149762
 0.000000000 0.000000000 0.000000000 0.000000000 0.001814730 -0.030548920 0.051729555 0.003072946
 -0.000253597 0.052816376 0.001814730 -0.030548920 0.000000000 0.000000000 0.000000000 0.000000000
 0.031190742 0.000149762 0.051729555 0.003072946 0.000000000 0.000000000 0.000000000 0.000000000
14.200000 0.000000000 0.000000000 0.000000000 0.000000000 0.021658837 0.047725082 0.028305544 -0.012845764
 0.000000000 0.000000000 0.000000000 0.000000000 -0.011222107 -0.028357728 0.047813067 -0.018921240
 0.021658837 0.047725082 -0.011222107 -0.028357728 0.000000000 0.000000000 0.000000000 0.000000000
 0.028305544 -0.012845764 0.047813067 -0.018921240 0.000000000 0.000000000 0.000000000 0.000000000
14.250000 0.000000000 0.000000000 0.000000000 0.000000000 0.039305764 0.034055001 0.020284747 -0.023412346
 0.000000000 0.000000000 0.000000000 0.000000000 -0.022075218 -0.020890302 0.035071636 -0.037060930
 0.039305764 0.034055001 -0.022075218 -0.020890302 0.000000000 0.000000000 0.000000000 0.000000000
 0.020284747 -0.023412346 0.035071636 -0.037060930 0.000000000 0.000000000 0.000000000 0.000000000
14.300000 0.000000000 0.000000000 0.000000000 0.000000000 0.049552492 0.014417428 0.008624552 -0.029642461
 0.000000000 0.000000000 0.000000000 0.000000000 -0.028734863 -0.009576400 0.016008606 -0.048035286
 0.049552492 0.014417428 -0.028734863 -0.009576400 0.000000000 0.000000000 0.000000000 0.000000000
 0.008624552 -0.029642461 0.016008606 -0.048035286 0.000000000 0.000000000 0.000000000 0.000000000
14.350000 0.000000000 0.000000000 0.000000000 0.000000000 0.050654519 -0.007534625 -0.004526543 -0.030431493
 0.000000000 0.000000000 0.000000000 0.000000000 -0.029987598 0.003446634 -0.005737069 -0.049915636
 0.050654519 -0.007534625 -0.029987598 0.003446634 0.000000000 0.000000000 0.000000000 0.000000000
 -0.004526543 -0.030431493 -0.005737069 -0.049915636 0.000000000 0.000000000 0.000000000 0.000000000
14.400000 0.000000000 0.000000000 0.000000000 0.000000000 0.042552277 -0.027784768 -0.016763489 -0.025673227
 0.000000000 0.000000000 0.000000000 0.000000000 -0.025637025 0.015737496 -0.026084228 -0.042492274
 0.042552277 -0.027784768 -0.025637025 0.015737496 0.000000000 0.000000000 0.000000000 0.000000000
 -0.016763489 -0.025673227 -0.026084228 -0.042492274 0.000000000 0.000000000 0.000000000 0.000000000
14.450000 0.000000000 0.000000000 0.000000000 0.000000000 0.026855926 -0.042686924 -0.025864341 -0.016272216
 0.000000000 0.000000000 0.000000000 0.000000000 -0.016533316 0.025008404 -0.041274272 -0.027286850
 0.026855926 -0.042686924 -0.016533316 0.025008404 0.000000000 0.000000000 0.000000000 0.000000000
 -0.025864341 -0.016272216 -0.041274272 -0.027286850 0.000000000 0.000000000 0.000000000 0.000000000
14.500000 0.000000000 0.000000000 0.000000000 0.000000000 0.006527753 -0.049620559 -0.030193502 -0.003972058
 0.000000000 0.000000000 0.000000000 0.000000000 -0.004407334 0.029550720 -0.048564200 -0.007243095
 0.006527753 -0.049620559 -0.004407334 0.029550720 0.000000000 0.000000000 0.000000000 0.000000000
 -0.030193502 -0.003972058 -0.048564200 -0.007243095 0.000000000 0.000000000 0.000000000 0.000000000
14.550000 0.000000000 0.000000000 0.000000000 0.000000000 -0.014675574 -0.047449927 -0.028995397 0.008967855
 0.000000000 0.000000000 0.000000000 0.000000000 0.008458310 0.028549585 -0.046720371 0.013841721
 -0.014675574 -0.047449927 0.008458310 0.028549585 0.000000000 0.000000000 0.000000000 0.000000000
 -0.028995397 0.008967855 -0.046720371 0.013841721 0.000000000 0.000000000 0.000000000 0.000000000
14.600000 0.000000000 0.000000000 0.000000000 0.000000000 -0.032896132 -0.036707162 -0.022525915 0.020187218
 0.000000000 0.000000000 0.000000000 0.000000000 0.019658797 0.022229672 -0.036224419 0.032035043
 -0.032896132 -0.036707162 0.019658797 0.022229672 0.000000000 0.000000000 0.000000000 0.000000000
 -0.022525915 0.020187218 -0.036224419 0.032035043 0.000000000 0.000000000 0.000000000 0.000000000
14.650000 0.000000000 0.000000000 0.000000000 0.000000000 -0.044875565 -0.019470287 -0.011998821 0.027655159
 0.000000000 0.000000000 0.000000000 0.000000000 0.027116416 0.011806082 -0.019157532 0.044001355
 -0.044875565 -0.019470287 0.027116416 0.011806082 0.000000000 0.000000000 0.000000000 0.000000000
 -0.011998821 0.027655159 -0.019157532 0.044001355 0.000000000 0.000000000 0.000000000 0.000000000
14.700000 0.000000000 0.000000000 0.000000000 0.000000000 -0.048536500 0.001037047 0.000641794 0.030037641
 0.000000000 0.000000000 0.000000000 0.000000000 0.029465759 -0.000749112 0.001210457 0.047612421
 -0.048536500 0.001037047 0.029465759 -0.000749112 0.000000000 0.000000000 0.000000000 0.000000000
 0.000641794 0.030037641 0.001210457 0.047612421 0.000000000 0.000000000 0.000000000 0.000000000
14.750000 0.000000000 0.000000000 0.000000000 0.000000000 -0.043341054 0.021047303 0.013080415 0.026935468
 0.000000000 0.000000000 0.000000000 0.000000000 0.026303415 -0.013079831 0.021046364 0.042324038
 -0.043341054 0.021047303 0.026303415 -0.013079831 0.000000000 0.000000000 0.000000000 0.000000000
 0.013080415 0.026935468 0.021046364 0.042324038 0.000000000 0.000000000 0.000000000 0.000000000
14.800000 0.000000000 0.000000000 0.000000000 0.000000000 -0.030364891 0.036940168 0.023054102 0.018950517
 0.000000000 0.000000000 0.000000000 0.000000000 0.018256566 -0.022887976 0.036673980 0.029252956
 -0.030364891 0.036940168 0.018256566 -0.022887976 0.000000000 0.000000000 0.000000000 0.000000000
 0.023054102 0.018950517 0.036673980 0.029252956 0.000000000 0.000000000 0.000000000 0.000000000
14.850000 0.000000000 0.000000000 0.000000000 0.000000000 -0.012077762 0.045896443 0.028764002 0.007569318
 0.000000000 0.000000000 0.000000000 0.000000000 0.006858950 -0.028361530 0.045254251 0.010944284
 -0.012077762 0.045896443 0.006858950 -0.028361530 0.000000000 0.000000000 0.000000000 0.000000000
 0.028764002 0.007569318 0.045254251 0.010944284 0.000000000 0.000000000 0.000000000 0.000000000
14.900000 0.000000000 0.000000000 0.000000000 0.000000000 0.008125219 0.046396823 0.029199547 -0.005113555
 0.000000000 0.000000000 0.000000000 0.000000000 -0.005741333 -0.028509086 0.045299710 -0.009122730
 0.008125219 0.046396823 -0.005741333 -0.028509086 0.000000000 0.000000000 0.000000000 0.000000000
 0.029199547 -0.005113555 0.045299710 -0.009122730 0.000000000 0.000000000 0.000000000 0.000000000
14.950000 0.000000000 0.000000000 0.000000000 0.000000000 0.026552857 0.038477564 0.024316987 -0.016780831
 0.000000000 0.000000000 0.000000000 0.000000000 -0.017186533 -0.023339069 0.036930173 -0.027194813
 0.026552857 0.038477564 -0.017186533 -0.023339069 0.000000000 0.000000000 0.000000000 0.000000000
 0.024316987 -0.016780831 0.036930173 -0.027194813 0.000000000 0.000000000 0.000000000 0.000000000
15.000000 0.000000000 0.000000000 0.000000000 0.000000000 0.039891269 0.023700426 0.015040748 -0.025315769
 0.000000000 0.000000000 0.000000000 0.000000000 -0.025350269 -0.013851334 0.021826209 -0.039945633
 0.039891269 0.023700426 -0.025350269 -0.013851334 0.000000000 0.000000000 0.000000000 0.000000000
 0.015040748 -0.025315769 0.021826209 -0.039945633 0.000000000 0.000000000 0.000000000 0.000000000
15.050000 0.000000000 0.000000000 0.000000000 0.000000000 0.045798720 0.004846662 0.003088616 -0.029185994
 0.000000000 0.000000000 0.000000000 0.000000000 -0.028732379 -0.001843993 0.002893597 -0.045086908
 0.045798720 0.004846662 -0.028732379 -0.001843993 0.000000000 0.000000000 0.000000000 0.000000000
 0.003088616 -0.029185994 0.002893597 -0.045086908 0.000000000 0.000000000 0.000000000 0.000000000
15.100000 0.000000000 0.000000000 0.000000000 0.000000000 0.043315351 -0.014605321 -0.009346240 -0.027718369
 0.000000000 0.000000000 0.000000000 0.000000000 -0.026734331 0.010427232 -0.016294581 -0.041777600
 0.043315351 -0.014605321 -0.026734331 0.010427232 0.000000000 0.000000000 0.000000000 0.000000000
 -0.009346240 -0.027718369 -0.016294581 -0.041777600 0.000000000 0.000000000 0.000000000 0.000000000
15.150000 0.000000000 0.000000000 0.000000000 0.000000000 0.033016357 -0.031120733 -0.019997569 -0.021215660
 0.000000000 0.000000000 0.000000000 0.000000000 -0.019764674 0.020672632 -0.032171284 -0.030758296
 0.033016357 -0.031120733 -0.019764674 0.020672632 0.000000000 0.000000000 0.000000000 0.000000000
 -0.019997569 -0.021215660 -0.032171284 -0.030758296 0.000000000 0.000000000 0.000000000 0.000000000
15.200000 0.000000000 0.000000000 0.000000000 0.000000000 0.016884758 -0.041749759 -0.026938897 -0.010894836
 0.000000000 0.000000000 0.000000000 0.000000000 -0.009156059 0.026995581 -0.041837608 -0.014190012
 0.016884758 -0.041749759 -0.009156059 0.026995581 0.000000000 0.000000000 0.000000000 0.000000000
 -0.026938897 -0.010894836 -0.041837608 -0.014190012 0.000000000 0.000000000 0.000000000 0.000000000
15.250000 0.000000000 0.000000000 0.000000000 0.000000000 -0.002068978 -0.044653303 -0.028931758 0.001340532
 0.000000000 0.000000000 0.000000000 0.000000000 0.003089433 0.028243421 -0.043590924 0.004768235
 -0.002068978 -0.044653303 0.003089433 0.028243421 0.000000000 0.000000000 0.000000000 0.000000000
 -0.028931758 0.001340532 -0.043590924 0.004768235 0.000000000 0.000000000 0.000000000 0.000000000
15.300000 0.000000000 0.000000000 0.000000000 0.000000000 -0.020367749 -0.039419632 -0.025646385 0.013251244
 0.000000000 0.000000000 0.000000000 0.000000000 0.014678006 0.024217298 -0.037223062 0.022560746
 -0.020367749 -0.039419632 0.014678006 0.024217298 0.000000000 0.000000000 0.000000000 0.000000000
 -0.025646385 0.013251244 -0.037223062 0.022560746 0.000000000 0.000000000 0.000000000 0.000000000
15.350000 0.000000000 0.000000000 0.000000000 0.000000000 -0.034704779 -0.027117703 -0.017715600 0.022672127
 0.000000000 0.000000000 0.000000000 0.000000000 0.023453660 0.015702803 -0.024036666 0.035901092
 -0.034704779 -0.027117703 0.023453660 0.015702803 0.000000000 0.000000000 0.000000000 0.000000000
 -0.017715600 0.022672127 -0.024036666 0.035901092 0.000000000 0.000000000 0.000000000 0.000000000
15.400000 0.000000000 0.000000000 0.000000000 0.000000000 -0.042540217 -0.010081459 -0.006613217 0.027905453
 0.000000000 0.000000000 0.000000000 0.000000000 0.027799128 0.004316927 -0.006580901 0.042378130
 -0.042540217 -0.010081459 0.027799128 0.004316927 0.000000000 0.000000000 0.000000000 0.000000000
 -0.006613217 0.027905453 -0.006580901 0.042378130 0.000000000 0.000000000 0.000000000 0.000000000
15.450000 0.000000000 0.000000000 0.000000000 0.000000000 -0.042549910 0.008531815 0.005619715 0.028026672
 0.000000000 0.000000000 0.000000000 0.000000000 0.026933691 -0.007798897 0.011840235 0.040890554
 -0.042549910 0.008531815 0.026933691 -0.007798897 0.000000000 0.000000000 0.000000000 0.000000000
 0.005619715 0.028026672 0.011840235 0.040890554 0.000000000 0.000000000 0.000000000 0.000000000
15.500000 0.000000000 0.000000000 0.000000000 0.000000000 -0.034847291 0.025325714 0.016750014 0.023047430
 0.000000000 0.000000000 0.000000000 0.000000000 0.021053084 -0.018381424 0.027792376 0.031831876
 -0.034847291 0.025325714 0.021053084 -0.018381424 0.000000000 0.000000000 0.000000000 0.000000000
 0.016750014 0.023047430 0.027792376 0.031831876 0.000000000 0.000000000 0.000000000 0.000000000
15.550000 0.000000000 0.000000000 0.000000000 0.000000000 -0.020941552 0.037283576 0.024759895 0.013907213
 0.000000000 0.000000000 0.000000000 0.000000000 0.011286492 -0.025468211 0.038350162 0.016995257
 -0.020941552 0.037283576 0.011286492 -0.025468211 0.000000000 0.000000000 0.000000000 0.000000000
 0.024759895 0.013907213 0.038350162 0.016995257 0.000000000 0.000000000 0.000000000 0.000000000
15.600000 0.000000000 0.000000000 0.000000000 0.000000000 -0.003443615 0.042309389 0.028212588 0.002296258
 0.000000000 0.000000000 0.000000000 0.000000000 -0.000520115 -0.027761345 0.041632677 -0.000779997
 -0.003443615 0.042309389 -0.000520115 -0.027761345 0.000000000 0.000000000 0.000000000 0.000000000
 0.028212588 0.002296258 0.041632677 -0.000779997 0.000000000 0.000000000 0.000000000 0.000000000
15.650000 0.000000000 0.000000000 0.000000000 0.000000000 0.014423105 0.039593928 0.026509828 -0.009656886
 0.000000000 0.000000000 0.000000000 0.000000000 -0.012152769 -0.024864900 0.037137135 -0.018150848
 0.014423105 0.039593928 -0.012152769 -0.024864900 0.000000000 0.000000000 0.000000000 0.000000000
 0.026509828 -0.009656886 0.037137135 -0.018150848 0.000000000 0.000000000 0.000000000 0.000000000
15.700000 0.000000000 0.000000000 0.000000000 0.000000000 0.029415661 0.029742413 0.019995116 -0.019775448
 0.000000000 0.000000000 0.000000000 0.000000000 -0.021444531 -0.017352725 0.025811899 -0.031898395
 0.029415661 0.029742413 -0.021444531 -0.017352725 0.000000000 0.000000000 0.000000000 0.000000000
 0.019995116 -0.019775448 0.025811899 -0.031898395 0.000000000 0.000000000 0.000000000 0.000000000
15.750000 0.000000000 0.000000000 0.000000000 0.000000000 0.038859325 0.014644093 0.009885005 -0.026230686
 0.000000000 0.000000000 0.000000000 0.000000000 -0.026678980 -0.006655081 0.009859139 -0.039523448
 0.038859325 0.014644093 -0.026678980 -0.006655081 0.000000000 0.000000000 0.000000000 0.000000000
 0.009885005 -0.026230686 0.009859139 -0.039523448 0.000000000 0.000000000 0.000000000 0.000000000
15.800000 0.000000000 0.000000000 0.000000000 0.000000000 0.041123779 -0.002888826 -0.001957942 -0.027872210
 0.000000000 0.000000000 0.000000000 0.000000000 -0.026907081 0.005213543 -0.007692270 -0.039699789
 0.041123779 -0.002888826 -0.026907081 0.005213543 0.000000000 0.000000000 0.000000000 0.000000000
 -0.001957942 -0.027872210 -0.007692270 -0.039699789 0.000000000 0.000000000 0.000000000 0.000000000
15.850000 0.000000000 0.000000000 0.000000000 0.000000000 0.035903140 -0.019644107 -0.013368172 -0.024432741
 0.000000000 0.000000000 0.000000000 0.000000000 -0.022118952 0.016033663 -0.023560962 -0.032503101
 0.035903140 -0.019644107 -0.022118952 0.016033663 0.000000000 0.000000000 0.000000000 0.000000000
 -0.013368172 -0.024432741 -0.023560962 -0.032503101 0.000000000 0.000000000 0.000000000 0.000000000
15.900000 0.000000000 0.000000000 0.000000000 0.000000000 0.024252014 -0.032597192 -0.022272997 -0.016570907
 0.000000000 0.000000000 0.000000000 0.000000000 -0.013239518 0.023795711 -0.034825729 -0.019376426
 0.024252014 -0.032597192 -0.013239518 0.023795711 0.000000000 0.000000000 0.000000000 0.000000000
 -0.022272997 -0.016570907 -0.034825729 -0.019376426 0.000000000 0.000000000 0.000000000 0.000000000
15.950000 0.000000000 0.000000000 0.000000000 0.000000000 0.008374608 -0.039456321 -0.027068937 -0.005745385
 0.000000000 0.000000000 0.000000000 0.000000000 -0.001950024 0.027073086 -0.039462368 -0.002842401
 0.008374608 -0.039456321 -0.001950024 0.027073086 0.000000000 0.000000000 0.000000000 0.000000000
 -0.027068937 -0.005745385 -0.039462368 -0.002842401 0.000000000 0.000000000 0.000000000 0.000000000
16.000000 0.000000000 0.000000000 0.000000000 0.000000000 -0.008791261 -0.039066965 -0.026910260 0.006055631
 0.000000000 0.000000000 0.000000000 0.000000000 0.009630177 0.025284131 -0.036706232 0.013980608
 -0.008791261 -0.039066965 0.009630177 0.025284131 0.000000000 0.000000000 0.000000000 0.000000000
 -0.026910260 0.006055631 -0.036706232 0.013980608 0.000000000 0.000000000 0.000000000 0.000000000
16.050000 0.000000000 0.000000000 0.000000000 0.000000000 -0.024116964 -0.031604406 -0.021857824 0.016679458
 0.000000000 0.000000000 0.000000000 0.000000000 0.019341366 0.018794970 -0.027175801 0.027965838
 -0.024116964 -0.031604406 0.019341366 0.018794970 0.000000000 0.000000000 0.000000000 0.000000000
 -0.021857824 0.016679458 -0.027175801 0.027965838 0.000000000 0.000000000 0.000000000 0.000000000
16.100000 0.000000000 0.000000000 0.000000000 0.000000000 -0.034852492 -0.018522675 -0.012862091 0.024201468
 0.000000000 0.000000000 0.000000000 0.000000000 0.025386092 0.008845099 -0.012737812 0.036558466
 -0.034852492 -0.018522675 0.025386092 0.008845099 0.000000000 0.000000000 0.000000000 0.000000000
 -0.012862091 0.024201468 -0.012737812 0.036558466 0.000000000 0.000000000 0.000000000 0.000000000
16.150000 0.000000000 0.000000000 0.000000000 0.000000000 -0.039119051 -0.002272669 -0.001584493 0.027273591
 0.000000000 0.000000000 0.000000000 0.000000000 0.026661685 -0.002689241 0.003857232 0.038241383
 -0.039119051 -0.002272669 0.026661685 -0.002689241 0.000000000 0.000000000 0.000000000 0.000000000
 -0.001584493 0.027273591 0.003857232 0.038241383 0.000000000 0.000000000 0.000000000 0.000000000
16.200000 0.000000000 0.000000000 0.000000000 0.000000000 -0.036236737 0.014156180 0.009909318 0.025365697
 0.000000000 0.000000000 0.000000000 0.000000000 0.022961155 -0.013648753 0.019498233 0.032801674
 -0.036236737 0.014156180 0.022961155 -0.013648753 0.000000000 0.000000000 0.000000000 0.000000000
 0.009909318 0.025365697 0.019498233 0.032801674 0.000000000 0.000000000 0.000000000 0.000000000
16.250000 0.000000000 0.000000000 0.000000000 0.000000000 -0.026830346 0.027785103 0.019527697 0.018856683
 0.000000000 0.000000000 0.000000000 0.000000000 0.015005926 -0.021995182 0.031295979 0.021351273
 -0.026830346 0.027785103 0.015005926 -0.021995182 0.000000000 0.000000000 0.000000000 0.000000000
 0.019527697 0.018856683 0.031295979 0.021351273 0.000000000 0.000000000 0.000000000 0.000000000
16.300000 0.000000000 0.000000000 0.000000000 0.000000000 -0.012697398 0.036185322 0.025533504 0.008959684
 0.000000000 0.000000000 0.000000000 0.000000000 0.004305421 -0.026190242 0.037116032 0.006101515
 -0.012697398 0.036185322 0.004305421 -0.026190242 0.000000000 0.000000000 0.000000000 0.000000000
 0.025533504 0.008959684 0.037116032 0.006101515 0.000000000 0.000000000 0.000000000 0.000000000
16.350000 0.000000000 0.000000000 0.000000000 0.000000000 0.003534288 0.037909992 0.026857667 -0.002503897
 0.000000000 0.000000000 0.000000000 0.000000000 -0.007129222 -0.025478926 0.035963878 -0.010063001
 0.003534288 0.037909992 -0.007129222 -0.025478926 0.000000000 0.000000000 0.000000000 0.000000000
 0.026857667 -0.002503897 0.035963878 -0.010063001 0.000000000 0.000000000 0.000000000 0.000000000
16.400000 0.000000000 0.000000000 0.000000000 0.000000000 0.018894439 0.032742103 0.023289249 -0.013439494
 0.000000000 0.000000000 0.000000000 0.000000000 -0.017163026 -0.020025086 0.028153051 -0.024129312
 0.018894439 0.032742103 -0.017163026 -0.020025086 0.000000000 0.000000000 0.000000000 0.000000000
 0.023289249 -0.013439494 0.028153051 -0.024129312 0.000000000 0.000000000 0.000000000 0.000000000
16.450000 0.000000000 0.000000000 0.000000000 0.000000000 0.030613149 0.021716123 0.015508267 -0.021861954
 0.000000000 0.000000000 0.000000000 0.000000000 -0.023935663 -0.010874984 0.015228169 -0.033516950
 0.030613149 0.021716123 -0.023935663 -0.010874984 0.000000000 0.000000000 0.000000000 0.000000000
 0.015508267 -0.021861954 0.015228169 -0.033516950 0.000000000 0.000000000 0.000000000 0.000000000
16.500000 0.000000000 0.000000000 0.000000000 0.000000000 0.036619620 0.006912725 0.004956328 -0.026255761
 0.000000000 0.000000000 0.000000000 0.000000000 -0.026206204 0.000243276 -0.000339303 -0.036550501
 0.036619620 0.006912725 -0.026206204 0.000243276 0.000000000 0.000000000 0.000000000 0.000000000
 0.004956328 -0.026255761 -0.000339303 -0.036550501 0.000000000 0.000000000 0.000000000 0.000000000
16.550000 0.000000000 0.000000000 0.000000000 0.000000000 0.035907153 -0.008932979 -0.006430352 -0.025847548
 0.000000000 0.000000000 0.000000000 0.000000000 -0.023580277 0.011246017 -0.015622853 -0.032757482
 0.035907153 -0.008932979 -0.023580277 0.011246017 0.000000000 0.000000000 0.000000000 0.000000000
 -0.006430352 -0.025847548 -0.015622853 -0.032757482 0.000000000 0.000000000 0.000000000 0.000000000
16.600000 0.000000000 0.000000000 0.000000000 0.000000000 0.028700243 -0.022936079 -0.016576124 -0.020741941
 0.000000000 0.000000000 0.000000000 0.000000000 -0.016578088 0.020084372 -0.027790378 -0.022938796
 0.028700243 -0.022936079 -0.016578088 0.020084372 0.000000000 0.000000000 0.000000000 0.000000000
 -0.016576124 -0.020741941 -0.027790378 -0.022938796 0.000000000 0.000000000 0.000000000 0.000000000
16.650000 0.000000000 0.000000000 0.000000000 0.000000000 0.016396358 -0.032586411 -0.023644145 -0.011896919
 0.000000000 0.000000000 0.000000000 0.000000000 -0.006531676 0.025125667 -0.034628247 -0.009001970
 0.016396358 -0.032586411 -0.006531676 0.025125667 0.000000000 0.000000000 0.000000000 0.000000000
 -0.023644145 -0.011896919 -0.034628247 -0.009001970 0.000000000 0.000000000 0.000000000 0.000000000
16.700000 0.000000000 0.000000000 0.000000000 0.000000000 0.001296174 -0.036197756 -0.026368772 -0.000944216
 0.000000000 0.000000000 0.000000000 0.000000000 0.004668369 0.025454844 -0.034943162 0.006408508
 0.001296174 -0.036197756 0.004668369 0.025454844 0.000000000 0.000000000 0.000000000 0.000000000
 -0.026368772 -0.000944216 -0.034943162 0.006408508 0.000000000 0.000000000 0.000000000 0.000000000
16.750000 0.000000000 0.000000000 0.000000000 0.000000000 -0.013825871 -0.033201453 -0.024281997 0.010111599
 0.000000000 0.000000000 0.000000000 0.000000000 0.014928582 0.021040310 -0.028769003 0.020412267
 -0.013825871 -0.033201453 0.014928582 0.021040310 0.000000000 0.000000000 0.000000000 0.000000000
 -0.024281997 0.010111599 -0.028769003 0.020412267 0.000000000 0.000000000 0.000000000 0.000000000
16.800000 0.000000000 0.000000000 0.000000000 0.000000000 -0.026230677 -0.024233486 -0.017793453 0.019259891
 0.000000000 0.000000000 0.000000000 0.000000000 0.022343799 0.012734186 -0.017343106 0.030430752
 -0.026230677 -0.024233486 0.022343799 0.012734186 0.000000000 0.000000000 0.000000000 0.000000000
 -0.017793453 0.019259891 -0.017343106 0.030430752 0.000000000 0.000000000 0.000000000 0.000000000
16.850000 0.000000000 0.000000000 0.000000000 0.000000000 -0.033709947 -0.011002250 -0.008110373 0.024849484
 0.000000000 0.000000000 0.000000000 0.000000000 0.025550768 0.002108002 -0.002859642 0.034661285
 -0.033709947 -0.011002250 0.025550768 0.002108002 0.000000000 0.000000000 0.000000000 0.000000000
 -0.008110373 0.024849484 -0.002859642 0.034661285 0.000000000 0.000000000 0.000000000 0.000000000
16.900000 0.000000000 0.000000000 0.000000000 0.000000000 -0.034978512 0.004035979 0.002986903 0.025886517
 0.000000000 0.000000000 0.000000000 0.000000000 0.023978588 -0.008844541 0.011950967 0.032400471
 -0.034978512 0.004035979 0.023978588 -0.008844541 0.000000000 0.000000000 0.000000000 0.000000000
 0.002986903 0.025886517 0.011950967 0.032400471 0.000000000 0.000000000 0.000000000 0.000000000
16.950000 0.000000000 0.000000000 0.000000000 0.000000000 -0.029893975 0.018132349 0.013472164 0.022210941
 0.000000000 0.000000000 0.000000000 0.000000000 0.017950004 -0.018081520 0.024336137 0.024159128
 -0.029893975 0.018132349 0.017950004 -0.018081520 0.000000000 0.000000000 0.000000000 0.000000000
 0.013472164 0.022210941 0.024336137 0.024159128 0.000000000 0.000000000 0.000000000 0.000000000
17.000000 0.000000000 0.000000000 0.000000000 0.000000000 -0.019466347 0.028747274 0.021443171 0.014520341
 0.000000000 0.000000000 0.000000000 0.000000000 0.008615657 -0.023893343 0.032032037 0.011550373
 -0.019466347 0.028747274 0.008615657 -0.023893343 0.000000000 0.000000000 0.000000000 0.000000000
 0.021443171 0.014520341 0.032032037 0.011550373 0.000000000 0.000000000 0.000000000 0.000000000
17.050000 0.000000000 0.000000000 0.000000000 0.000000000 -0.005658934 0.034007280 0.025466625 0.004237738
 0.000000000 0.000000000 0.000000000 0.000000000 -0.002265413 -0.025219005 0.033676617 -0.003025157
 -0.005658934 0.034007280 -0.002265413 -0.025219005 0.000000000 0.000000000 0.000000000 0.000000000
 0.025466625 0.004237738 0.033676617 -0.003025157 0.000000000 0.000000000 0.000000000 0.000000000
17.100000 0.000000000 0.000000000 0.000000000 0.000000000 0.008980549 0.033034827 0.024835722 -0.006751615
 0.000000000 0.000000000 0.000000000 0.000000000 -0.012657151 -0.021839578 0.029049554 -0.016835700
 0.008980549 0.033034827 -0.012657151 -0.021839578 0.000000000 0.000000000 0.000000000 0.000000000
 0.024835722 -0.006751615 0.029049554 -0.016835700 0.000000000 0.000000000 0.000000000 0.000000000
17.150000 0.000000000 0.000000000 0.000000000 0.000000000 0.021789457 0.026093173 0.019694051 -0.016445784
 0.000000000 0.000000000 0.000000000 0.000000000 -0.020627360 -0.014413671 0.019097057 -0.027329739
 0.021789457 0.026093173 -0.020627360 -0.014413671 0.000000000 0.000000000 0.000000000 0.000000000
 0.019694051 -0.016445784 0.019097057 -0.027329739 0.000000000 0.000000000 0.000000000 0.000000000
17.200000 0.000000000 0.000000000 0.000000000 0.000000000 0.030473887 0.014522699 0.011004165 -0.023090726
 0.000000000 0.000000000 0.000000000 0.000000000 -0.024706831 -0.004349295 0.005739964 -0.032606735
 0.030473887 0.014522699 -0.024706831 -0.004349295 0.000000000 0.000000000 0.000000000 0.000000000
 0.011004165 -0.023090726 0.005739964 -0.032606735 0.000000000 0.000000000 0.000000000 0.000000000
17.250000 0.000000000 0.000000000 0.000000000 0.000000000 0.033518797 0.000483136 0.000367518 -0.025497519
 0.000000000 0.000000000 0.000000000 0.000000000 -0.024160003 0.006463009 -0.008496210 -0.031760510
 0.033518797 0.000483136 -0.024160003 0.006463009 0.000000000 0.000000000 0.000000000 0.000000000
 0.000367518 -0.025497519 -0.008496210 -0.031760510 0.000000000 0.000000000 0.000000000 0.000000000
17.300000 0.000000000 0.000000000 0.000000000 0.000000000 0.030451382 -0.013448905 -0.010270568 -0.023254902
 0.000000000 0.000000000 0.000000000 0.000000000 -0.019117332 0.016005196 -0.020958176 -0.025033397
 0.030451382 -0.013448905 -0.019117332 0.016005196 0.000000000 0.000000000 0.000000000 0.000000000
 -0.010270568 -0.023254902 -0.020958176 -0.025033397 0.000000000 0.000000000 0.000000000 0.000000000
17.350000 0.000000000 0.000000000 0.000000000 0.000000000 0.021912090 -0.024752220 -0.018976579 -0.016799160
 0.000000000 0.000000000 0.000000000 0.000000000 -0.010545594 0.022508251 -0.029358779 -0.013755212
 0.021912090 -0.024752220 -0.010545594 0.022508251 0.000000000 0.000000000 0.000000000 0.000000000
 -0.018976579 -0.016799160 -0.029358779 -0.013755212 0.000000000 0.000000000 0.000000000 0.000000000
17.400000 0.000000000 0.000000000 0.000000000 0.000000000 0.009523135 -0.031416655 -0.024180108 -0.007329566
 0.000000000 0.000000000 0.000000000 0.000000000 -0.000062668 0.024780007 -0.032196090 -0.000081423
 0.009523135 -0.031416655 -0.000062668 0.024780007 0.000000000 0.000000000 0.000000000 0.000000000
 -0.024180108 -0.007329566 -0.032196090 -0.000081423 0.000000000 0.000000000 0.000000000 0.000000000
17.450000 0.000000000 0.000000000 0.000000000 0.000000000 -0.004418867 -0.032299878 -0.024956980 0.003414303
 0.000000000 0.000000000 0.000000000 0.000000000 0.010367734 0.022423509 -0.029021004 0.013418151
 -0.004418867 -0.032299878 0.010367734 0.022423509 0.000000000 0.000000000 0.000000000 0.000000000
 -0.024956980 0.003414303 -0.029021004 0.013418151 0.000000000 0.000000000 0.000000000 0.000000000
17.500000 0.000000000 0.000000000 0.000000000 0.000000000 -0.017368038 -0.027322079 -0.021193177 0.013472031
 0.000000000 0.000000000 0.000000000 0.000000000 0.018803811 0.015905981 -0.020505867 0.024241728
 -0.017368038 -0.027322079 0.018803811 0.015905981 0.000000000 0.000000000 0.000000000 0.000000000
 -0.021193177 0.013472031 -0.020505867 0.024241728 0.000000000 0.000000000 0.000000000 0.000000000
17.550000 0.000000000 0.000000000 0.000000000 0.000000000 -0.026993568 -0.017465638 -0.013600545 0.021019973
 0.000000000 0.000000000 0.000000000 0.000000000 0.023687058 0.006466481 -0.008304168 0.030418603
 -0.026993568 -0.017465638 0.023687058 0.006466481 0.000000000 0.000000000 0.000000000 0.000000000
 -0.013600545 0.021019973 -0.008304168 0.030418603 0.000000000 0.000000000 0.000000000 0.000000000
17.600000 0.000000000 0.000000000 0.000000000 0.000000000 -0.031598649 -0.004582540 -0.003582334 0.024701783
 0.000000000 0.000000000 0.000000000 0.000000000 0.024130029 -0.004119552 0.005269753 0.030867257
 -0.031598649 -0.004582540 0.024130029 -0.004119552 0.000000000 0.000000000 0.000000000 0.000000000
 -0.003582334 0.024701783 0.005269753 0.030867257 0.000000000 0.000000000 0.000000000 0.000000000
17.650000 0.000000000 0.000000000 0.000000000 0.000000000 -0.030418829 0.008952937 0.007026057 0.023871991
 0.000000000 0.000000000 0.000000000 0.000000000 0.020077407 -0.013874140 0.017679090 0.025583589
 -0.030418829 0.008952937 0.020077407 -0.013874140 0.000000000 0.000000000 0.000000000 0.000000000
 0.007026057 0.023871991 0.017679090 0.025583589 0.000000000 0.000000000 0.000000000 0.000000000
17.700000 0.000000000 0.000000000 0.000000000 0.000000000 -0.023747469 0.020681229 0.016293234 0.018708901
 0.000000000 0.000000000 0.000000000 0.000000000 0.012311166 -0.020986235 0.026638120 0.015626734
 -0.023747469 0.020681229 0.012311166 -0.020986235 0.000000000 0.000000000 0.000000000 0.000000000
 0.016293234 0.018708901 0.026638120 0.015626734 0.000000000 0.000000000 0.000000000 0.000000000
17.750000 0.000000000 0.000000000 0.000000000 0.000000000 -0.012868002 0.028503881 0.022543337 0.010177130
 0.000000000 0.000000000 0.000000000 0.000000000 0.002299842 -0.024147835 0.030532614 0.002907929
 -0.012868002 0.028503881 0.002299842 -0.024147835 0.000000000 0.000000000 0.000000000 0.000000000
 0.022543337 0.010177130 0.030532614 0.002907929 0.000000000 0.000000000 0.000000000 0.000000000
17.800000 0.000000000 0.000000000 0.000000000 0.000000000 0.000192067 0.031058386 0.024658966 -0.000152493
 0.000000000 0.000000000 0.000000000 0.000000000 -0.008079058 -0.022794379 0.028709907 -0.010175710
 0.000192067 0.031058386 -0.008079058 -0.022794379 0.000000000 0.000000000 0.000000000 0.000000000
 0.024658966 -0.000152493 0.028709907 -0.010175710 0.000000000 0.000000000 0.000000000 0.000000000
17.850000 0.000000000 0.000000000 0.000000000 0.000000000 0.013038417 0.027954650 0.022280777 -0.010392048
 0.000000000 0.000000000 0.000000000 0.000000000 -0.016891068 -0.017205273 0.021586652 -0.021192433
 0.013038417 0.027954650 -0.016891068 -0.017205273 0.000000000 0.000000000 0.000000000 0.000000000
 0.022280777 -0.010392048 0.021586652 -0.021192433 0.000000000 0.000000000 0.000000000 0.000000000
17.900000 0.000000000 0.000000000 0.000000000 0.000000000 0.023348346 0.019832190 0.015868132 -0.018681478
 0.000000000 0.000000000 0.000000000 0.000000000 -0.022505203 -0.008446710 0.010556804 -0.028127284
 0.023348346 0.019832190 -0.022505203 -0.008446710 0.000000000 0.000000000 0.000000000 0.000000000
 0.015868132 -0.018681478 0.010556804 -0.028127284 0.000000000 0.000000000 0.000000000 0.000000000
17.950000 0.000000000 0.000000000 0.000000000 0.000000000 0.029290195 0.008230203 0.006610634 -0.023526364
 0.000000000 0.000000000 0.000000000 0.000000000 -0.023895695 0.001831607 -0.002280341 -0.029750010
 0.029290195 0.008230203 -0.023895695 0.001831607 0.000000000 0.000000000 0.000000000 0.000000000
 0.006610634 -0.023526364 -0.002280341 -0.029750010 0.000000000 0.000000000 0.000000000 0.000000000
18.000000 0.000000000 0.000000000 0.000000000 0.000000000 0.029848112 -0.004703397 -0.003792453 -0.024067193
 0.000000000 0.000000000 0.000000000 0.000000000 -0.020829234 0.011707103 -0.014519139 -0.025832398
 0.029848112 -0.004703397 -0.020829234 0.011707103 0.000000000 0.000000000 0.000000000 0.000000000
 -0.003792453 -0.024067193 -0.014519139 -0.025832398 0.000000000 0.000000000 0.000000000 0.000000000
18.050000 0.000000000 0.000000000 0.000000000 0.000000000 0.024994712 -0.016609102 -0.013444027 -0.020231652
 0.000000000 0.000000000 0.000000000 0.000000000 -0.013903560 0.019343848 -0.023897896 -0.017176822
 0.024994712 -0.016609102 -0.013903560 0.019343848 0.000000000 0.000000000 0.000000000 0.000000000
 -0.013444027 -0.020231652 -0.023897896 -0.017176822 0.000000000 0.000000000 0.000000000 0.000000000
18.100000 0.000000000 0.000000000 0.000000000 0.000000000 0.015682463 -0.025345758 -0.020595001 -0.012742974
 0.000000000 0.000000000 0.000000000 0.000000000 -0.004431148 0.023333760 -0.028716281 -0.005453305
 0.015682463 -0.025345758 -0.004431148 0.023333760 0.000000000 0.000000000 0.000000000 0.000000000
 -0.020595001 -0.012742974 -0.028716281 -0.005453305 0.000000000 0.000000000 0.000000000 0.000000000
18.150000 0.000000000 0.000000000 0.000000000 0.000000000 0.003657879 -0.029375096 -0.023961159 -0.002983719
 0.000000000 0.000000000 0.000000000 0.000000000 0.005809424 0.022956078 -0.028142921 0.007122042
 0.003657879 -0.029375096 0.005809424 0.022956078 0.000000000 0.000000000 0.000000000 0.000000000
 -0.023961159 -0.002983719 -0.028142921 0.007122042 0.000000000 0.000000000 0.000000000 0.000000000
18.200000 0.000000000 0.000000000 0.000000000 0.000000000 -0.008865448 -0.028031884 -0.022953637 0.007259387
 0.000000000 0.000000000 0.000000000 0.000000000 0.014907337 0.018307347 -0.022357652 0.018205427
 -0.008865448 -0.028031884 0.014907337 0.018307347 0.000000000 0.000000000 0.000000000 0.000000000
 -0.022953637 0.007259387 -0.022357652 0.018205427 0.000000000 0.000000000 0.000000000 0.000000000
18.250000 0.000000000 0.000000000 0.000000000 0.000000000 -0.019613855 -0.021632381 -0.017781688 0.016122471
 0.000000000 0.000000000 0.000000000 0.000000000 0.021175976 0.010278498 -0.012504346 0.025761715
 -0.019613855 -0.021632381 0.021175976 0.010278498 0.000000000 0.000000000 0.000000000 0.000000000
 -0.017781688 0.016122471 -0.012504346 0.025761715 0.000000000 0.000000000 0.000000000 0.000000000
18.300000 0.000000000 0.000000000 0.000000000 0.000000000 -0.026665910 -0.011403699 -0.009409848 0.022003575
 0.000000000 0.000000000 0.000000000 0.000000000 0.023465473 0.000384223 -0.000465636 0.028437568
 -0.026665910 -0.011403699 0.023465473 0.000384223 0.000000000 0.000000000 0.000000000 0.000000000
 -0.009409848 0.022003575 -0.000465636 0.028437568 0.000000000 0.000000000 0.000000000 0.000000000
18.350000 0.000000000 0.000000000 0.000000000 0.000000000 -0.028795346 0.000750707 0.000621834 0.023852073
 0.000000000 0.000000000 0.000000000 0.000000000 0.021373478 -0.009522689 0.011496239 0.025803069
 -0.028795346 0.000750707 0.021373478 -0.009522689 0.000000000 0.000000000 0.000000000 0.000000000
 0.000621834 0.023852073 0.011496239 0.025803069 0.000000000 0.000000000 0.000000000 0.000000000
18.400000 0.000000000 0.000000000 0.000000000 0.000000000 -0.025683508 0.012604729 0.010481010 0.021356198
 0.000000000 0.000000000 0.000000000 0.000000000 0.015315530 -0.017598215 0.021164061 0.018418846
 -0.025683508 0.012604729 0.015315530 -0.017598215 0.000000000 0.000000000 0.000000000 0.000000000
 0.010481010 0.021356198 0.021164061 0.018418846 0.000000000 0.000000000 0.000000000 0.000000000
18.450000 0.000000000 0.000000000 0.000000000 0.000000000 -0.017964662 0.022016857 0.018377632 0.014995235
 0.000000000 0.000000000 0.000000000 0.000000000 0.006442801 -0.022350223 0.026776119 0.007718635
 -0.017964662 0.022016857 0.006442801 -0.022350223 0.000000000 0.000000000 0.000000000 0.000000000
 0.018377632 0.014995235 0.026776119 0.007718635 0.000000000 0.000000000 0.000000000 0.000000000
18.500000 0.000000000 0.000000000 0.000000000 0.000000000 -0.007098261 0.027316580 0.022888853 0.005947708
 0.000000000 0.000000000 0.000000000 0.000000000 -0.003576559 -0.022914052 0.027346654 -0.004268426
 -0.007098261 0.027316580 -0.003576559 -0.022914052 0.000000000 0.000000000 0.000000000 0.000000000
 0.022888853 0.005947708 0.027346654 -0.004268426 0.000000000 0.000000000 0.000000000 0.000000000
18.550000 0.000000000 0.000000000 0.000000000 0.000000000 0.004906379 0.027600289 0.023215268 -0.004126873
 0.000000000 0.000000000 0.000000000 0.000000000 -0.012870966 -0.019209656 0.022838076 -0.015302101
 0.004906379 0.027600289 -0.012870966 -0.019209656 0.000000000 0.000000000 0.000000000 0.000000000
 0.023215268 -0.004126873 0.022838076 -0.015302101 0.000000000 0.000000000 0.000000000 0.000000000
18.600000 0.000000000 0.000000000 0.000000000 0.000000000 0.015861148 0.022884393 0.019322386 -0.013392324
 0.000000000 0.000000000 0.000000000 0.000000000 -0.019714909 -0.011951798 0.014155066 -0.023349277
 0.015861148 0.022884393 -0.019714909 -0.011951798 0.000000000 0.000000000 0.000000000 0.000000000
 0.019322386 -0.013392324 0.014155066 -0.023349277 0.000000000 0.000000000 0.000000000 0.000000000
18.650000 0.000000000 0.000000000 0.000000000 0.000000000 0.023797530 0.014089880 0.011942325 -0.020170351
 0.000000000 0.000000000 0.000000000 0.000000000 -0.022849184 -0.002512292 0.002964070 -0.026958091
 0.023797530 0.014089880 -0.022849184 -0.002512292 0.000000000 0.000000000 0.000000000 0.000000000
 0.011942325 -0.020170351 0.002964070 -0.026958091 0.000000000 0.000000000 0.000000000 0.000000000
18.700000 0.000000000 0.000000000 0.000000000 0.000000000 0.027319849 0.002863411 0.002436265 -0.023244437
 0.000000000 0.000000000 0.000000000 0.000000000 -0.021712429 0.007339206 -0.008625978 -0.025519236
 0.027319849 0.002863411 -0.021712429 0.007339206 0.000000000 0.000000000 0.000000000 0.000000000
 0.002436265 -0.023244437 -0.008625978 -0.025519236 0.000000000 0.000000000 0.000000000 0.000000000
18.750000 0.000000000 0.000000000 0.000000000 0.000000000 0.025850070 -0.008730471 -0.007456527 -0.022078046
 0.000000000 0.000000000 0.000000000 0.000000000 -0.016541426 0.015766871 -0.018460634 -0.019367521
 0.025850070 -0.008730471 -0.016541426 0.015766871 0.000000000 0.000000000 0.000000000 0.000000000
 -0.007456527 -0.022078046 -0.018460634 -0.019367521 0.000000000 0.000000000 0.000000000 0.000000000
18.800000 0.000000000 0.000000000 0.000000000 0.000000000 0.019721358 -0.018588569 -0.015936833 -0.016908025
 0.000000000 0.000000000 0.000000000 0.000000000 -0.008322289 0.021210716 -0.024739976 -0.009707038
 0.019721358 -0.018588569 -0.008322289 0.021210716 0.000000000 0.000000000 0.000000000 0.000000000
 -0.015936833 -0.016908025 -0.024739976 -0.009707038 0.000000000 0.000000000 0.000000000 0.000000000
18.850000 0.000000000 0.000000000 0.000000000 0.000000000 0.010105482 -0.024950127 -0.021472620 -0.008696997
 0.000000000 0.000000000 0.000000000 0.000000000 0.001397480 0.022675238 -0.026347510 0.001623803
 0.010105482 -0.024950127 0.001397480 0.022675238 0.000000000 0.000000000 0.000000000 0.000000000
 -0.021472620 -0.008696997 -0.026347510 0.001623803 0.000000000 0.000000000 0.000000000 0.000000000
18.900000 0.000000000 0.000000000 0.000000000 0.000000000 -0.001210513 -0.026710822 -0.023075695 0.001045772
 0.000000000 0.000000000 0.000000000 0.000000000 0.010800281 0.019911299 -0.023047937 0.012501655
 -0.001210513 -0.026710822 0.010800281 0.019911299 0.000000000 0.000000000 0.000000000 0.000000000
 -0.023075695 0.001045772 -0.023047937 0.012501655 0.000000000 0.000000000 0.000000000 0.000000000
18.950000 0.000000000 0.000000000 0.000000000 0.000000000 -0.012155955 -0.023613736 -0.020477956 0.010541708
 0.000000000 0.000000000 0.000000000 0.000000000 0.018138214 0.013458067 -0.015518895 0.020915711
 -0.012155955 -0.023613736 0.018138214 0.013458067 0.000000000 0.000000000 0.000000000 0.000000000
 -0.020477956 0.010541708 -0.015518895 0.020915711 0.000000000 0.000000000 0.000000000 0.000000000
19.000000 0.000000000 0.000000000 0.000000000 0.000000000 -0.020755036 -0.016284446 -0.014175825 0.018067532
 0.000000000 0.000000000 0.000000000 0.000000000 0.022057898 0.004538027 -0.005213048 0.025338960
 -0.020755036 -0.016284446 0.022057898 0.004538027 0.000000000 0.000000000 0.000000000 0.000000000
 -0.014175825 0.018067532 -0.005213048 0.025338960 0.000000000 0.000000000 0.000000000 0.000000000
19.050000 0.000000000 0.000000000 0.000000000 0.000000000 -0.025483037 -0.006105964 -0.005335586 0.022267892
 0.000000000 0.000000000 0.000000000 0.000000000 0.021849960 -0.005174512 0.005921633 0.025004761
 -0.025483037 -0.006105964 0.021849960 -0.005174512 0.000000000 0.000000000 0.000000000 0.000000000
 -0.005335586 0.022267892 0.005921633 0.025004761 0.000000000 0.000000000 0.000000000 0.000000000
19.100000 0.000000000 0.000000000 0.000000000 0.000000000 -0.025536149 0.005041676 0.004422365 0.022399333
 0.000000000 0.000000000 0.000000000 0.000000000 0.017577220 -0.013867615 0.015809644 0.020038745
 -0.025536149 0.005041676 0.017577220 -0.013867615 0.000000000 0.000000000 0.000000000 0.000000000
 0.004422365 0.022399333 0.015809644 0.020038745 0.000000000 0.000000000 0.000000000 0.000000000
19.150000 0.000000000 0.000000000 0.000000000 0.000000000 -0.020967238 0.015128248 0.013320460 0.018461706
 0.000000000 0.000000000 0.000000000 0.000000000 0.010058461 -0.019929652 0.022634406 0.011423546
 -0.020967238 0.015128248 0.010058461 -0.019929652 0.000000000 0.000000000 0.000000000 0.000000000
 0.013320460 0.018461706 0.022634406 0.011423546 0.000000000 0.000000000 0.000000000 0.000000000
19.200000 0.000000000 0.000000000 0.000000000 0.000000000 -0.012664794 0.022342684 0.019747680 0.011193834
 0.000000000 0.000000000 0.000000000 0.000000000 0.000711641 -0.022247976 0.025171538 0.000805156
 -0.012664794 0.022342684 0.000711641 -0.022247976 0.000000000 0.000000000 0.000000000 0.000000000
 0.019747680 0.011193834 0.025171538 0.000805156 0.000000000 0.000000000 0.000000000 0.000000000
19.250000 0.000000000 0.000000000 0.000000000 0.000000000 -0.002180985 0.025417818 0.022551133 0.001935008
 0.000000000 0.000000000 0.000000000 0.000000000 -0.008713440 -0.020413005 0.023007892 -0.009821087
 -0.002180985 0.025417818 -0.008713440 -0.020413005 0.000000000 0.000000000 0.000000000 0.000000000
 0.022551133 0.001935008 0.023007892 -0.009821087 0.000000000 0.000000000 0.000000000 0.000000000
19.300000 0.000000000 0.000000000 0.000000000 0.000000000 0.008558055 0.023852370 0.021242727 -0.007621735
 0.000000000 0.000000000 0.000000000 0.000000000 -0.016462632 -0.014790304 0.016607275 -0.018485046
 0.008558055 0.023852370 -0.016462632 -0.014790304 0.000000000 0.000000000 0.000000000 0.000000000
 0.021242727 -0.007621735 0.016607275 -0.018485046 0.000000000 0.000000000 0.000000000 0.000000000
19.350000 0.000000000 0.000000000 0.000000000 0.000000000 0.017605712 0.017991403 0.016083911 -0.015739112
 0.000000000 0.000000000 0.000000000 0.000000000 -0.021103818 -0.006448034 0.007212747 -0.023606652
 0.017605712 0.017991403 -0.021103818 -0.006448034 0.000000000 0.000000000 0.000000000 0.000000000
 0.016083911 -0.015739112 0.007212747 -0.023606652 0.000000000 0.000000000 0.000000000 0.000000000
19.400000 0.000000000 0.000000000 0.000000000 0.000000000 0.023347352 0.008952588 0.008033826 -0.020951323
 0.000000000 0.000000000 0.000000000 0.000000000 -0.021791466 0.003045878 -0.003394210 -0.024283575
 0.023347352 0.008952588 -0.021791466 0.003045878 0.000000000 0.000000000 0.000000000 0.000000000
 0.008033826 -0.020951323 -0.003394210 -0.024283575 0.000000000 0.000000000 0.000000000 0.000000000
19.450000 0.000000000 0.000000000 0.000000000 0.000000000 0.024788013 -0.001586315 -0.001428927 -0.022328630
 0.000000000 0.000000000 0.000000000 0.000000000 -0.018420513 0.011918356 -0.013231101 -0.020449438
 0.024788013 -0.001586315 -0.018420513 0.011918356 0.000000000 0.000000000 0.000000000 0.000000000
 -0.001428927 -0.022328630 -0.013231101 -0.020449438 0.000000000 0.000000000 0.000000000 0.000000000
19.500000 0.000000000 0.000000000 0.000000000 0.000000000 0.021724150 -0.011698466 -0.010577795 -0.019643055
 0.000000000 0.000000000 0.000000000 0.000000000 -0.011641591 0.018522226 -0.020484574 -0.012874967
 0.021724150 -0.011698466 -0.011641591 0.018522226 0.000000000 0.000000000 0.000000000 0.000000000
 -0.010577795 -0.019643055 -0.020484574 -0.012874967 0.000000000 0.000000000 0.000000000 0.000000000
19.550000 0.000000000 0.000000000 0.000000000 0.000000000 0.014769914 -0.019559855 -0.017753219 -0.013405699
 0.000000000 0.000000000 0.000000000 0.000000000 -0.002735592 0.021641919 -0.023844284 -0.003013977
 0.014769914 -0.019559855 -0.002735592 0.021641919 0.000000000 0.000000000 0.000000000 0.000000000
 -0.017753219 -0.013405699 -0.023844284 -0.003013977 0.000000000 0.000000000 0.000000000 0.000000000
19.600000 0.000000000 0.000000000 0.000000000 0.000000000 0.005235161 -0.023777926 -0.021663573 -0.004769646
 0.000000000 0.000000000 0.000000000 0.000000000 0.006628281 0.020717098 -0.022739075 0.007275197
 0.005235161 -0.023777926 0.006628281 0.020717098 0.000000000 0.000000000 0.000000000 0.000000000
 -0.021663573 -0.004769646 -0.022739075 0.007275197 0.000000000 0.000000000 0.000000000 0.000000000
19.650000 0.000000000 0.000000000 0.000000000 0.000000000 -0.005120768 -0.023637764 -0.021617556 0.004683120
 0.000000000 0.000000000 0.000000000 0.000000000 0.014705288 0.015943092 -0.017433009 0.016079530
 -0.005120768 -0.023637764 0.014705288 0.015943092 0.000000000 0.000000000 0.000000000 0.000000000
 -0.021617556 0.004683120 -0.017433009 0.016079530 0.000000000 0.000000000 0.000000000 0.000000000
19.700000 0.000000000 0.000000000 0.000000000 0.000000000 -0.014413301 -0.019222430 -0.017646233 0.013231442
 0.000000000 0.000000000 0.000000000 0.000000000 0.020000157 0.008230186 -0.008965322 0.021786611
 -0.014413301 -0.019222430 0.020000157 0.008230186 0.000000000 0.000000000 0.000000000 0.000000000
 -0.017646233 0.013231442 -0.008965322 0.021786611 0.000000000 0.000000000 0.000000000 0.000000000
19.750000 0.000000000 0.000000000 0.000000000 0.000000000 -0.020975231 -0.011387335 -0.010493220 0.019328291
 0.000000000 0.000000000 0.000000000 0.000000000 0.021543796 -0.000969853 0.001052493 0.023379516
 -0.020975231 -0.011387335 0.021543796 -0.000969853 0.000000000 0.000000000 0.000000000 0.000000000
 -0.010493220 0.019328291 0.001052493 0.023379516 0.000000000 0.000000000 0.000000000 0.000000000
19.800000 0.000000000 0.000000000 0.000000000 0.000000000 -0.023655435 -0.001595247 -0.001475561 0.021880645
 0.000000000 0.000000000 0.000000000 0.000000000 0.019070525 -0.009936958 0.010742968 0.020617380
 -0.023655435 -0.001595247 0.019070525 -0.009936958 0.000000000 0.000000000 0.000000000 0.000000000
 -0.001475561 0.021880645 0.010742968 0.020617380 0.000000000 0.000000000 0.000000000 0.000000000
19.850000 0.000000000 0.000000000 0.000000000 0.000000000 -0.022020275 0.008356376 0.007758703 0.020445321
 0.000000000 0.000000000 0.000000000 0.000000000 0.013063441 -0.017004279 0.018314162 0.014069751
 -0.022020275 0.008356376 0.013063441 -0.017004279 0.000000000 0.000000000 0.000000000 0.000000000
 0.007758703 0.020445321 0.018314162 0.014069751 0.000000000 0.000000000 0.000000000 0.000000000
19.900000 0.000000000 0.000000000 0.000000000 0.000000000 -0.016422542 0.016664982 0.015531649 0.015305696
 0.000000000 0.000000000 0.000000000 0.000000000 0.004660238 -0.020867932 0.022390650 0.005000292
 -0.016422542 0.016664982 0.004660238 -0.020867932 0.000000000 0.000000000 0.000000000 0.000000000
 0.015531649 0.015305696 0.022390650 0.005000292 0.000000000 0.000000000 0.000000000 0.000000000
19.950000 0.000000000 0.000000000 0.000000000 0.000000000 -0.007927222 0.021849071 0.020440277 0.007416087
 0.000000000 0.000000000 0.000000000 0.000000000 -0.004562180 -0.020827448 0.022262926 -0.004876616
 -0.007927222 0.021849071 -0.004562180 -0.020827448 0.000000000 0.000000000 0.000000000 0.000000000
 0.020440277 0.007416087 0.022262926 -0.004876616 0.000000000 0.000000000 0.000000000 0.000000000
20.000000 0.000000000 0.000000000 0.000000000 0.000000000 0.001890569 0.023011941 0.021609651 -0.001775362
 0.000000000 0.000000000 0.000000000 0.000000000 -0.012883541 -0.016912607 0.018010097 -0.013719578
 0.001890569 0.023011941 -0.012883541 -0.016912607 0.000000000 0.000000000 0.000000000 0.000000000
 0.021609651 -0.001775362 0.018010097 -0.013719578 0.000000000 0.000000000 0.000000000 0.000000000
20.050000 0.000000000 0.000000000 0.000000000 0.000000000 0.011237255 0.019996172 0.018848711 -0.010592416
 0.000000000 0.000000000 0.000000000 0.000000000 -0.018761015 -0.009873703 0.010474788 -0.019903137
 0.011237255 0.019996172 -0.018761015 -0.009873703 0.000000000 0.000000000 0.000000000 0.000000000
 0.018848711 -0.010592416 0.010474788 -0.019903137 0.000000000 0.000000000 0.000000000 0.000000000
20.100000 0.000000000 0.000000000 0.000000000 0.000000000 0.018428129 0.013402337 0.012681051 -0.017436366
 0.000000000 0.000000000 0.000000000 0.000000000 -0.021115164 -0.001037864 0.001096897 -0.022316173
 0.018428129 0.013402337 -0.021115164 -0.001037864 0.000000000 0.000000000 0.000000000 0.000000000
 0.012681051 -0.017436366 0.001096897 -0.022316173 0.000000000 0.000000000 0.000000000 0.000000000
20.150000 0.000000000 0.000000000 0.000000000 0.000000000 0.022190661 0.004470363 0.004245776 -0.021075824
 0.000000000 0.000000000 0.000000000 0.000000000 -0.019528071 0.007941096 -0.008361152 -0.020561038
 0.022190661 0.004470363 -0.019528071 0.007941096 0.000000000 0.000000000 0.000000000 0.000000000
 0.004245776 -0.021075824 -0.008361152 -0.020561038 0.000000000 0.000000000 0.000000000 0.000000000
20.200000 0.000000000 0.000000000 0.000000000 0.000000000 0.021889245 -0.005153186 -0.004912804 -0.020868170
 0.000000000 0.000000000 0.000000000 0.000000000 -0.014317296 0.015392152 -0.016145287 -0.015017838
 0.021889245 -0.005153186 -0.014317296 0.015392152 0.000000000 0.000000000 0.000000000 0.000000000
 -0.004912804 -0.020868170 -0.016145287 -0.015017838 0.000000000 0.000000000 0.000000000 0.000000000
20.250000 0.000000000 0.000000000 0.000000000 0.000000000 0.017631778 -0.013718306 -0.013127833 -0.016872859
 0.000000000 0.000000000 0.000000000 0.000000000 -0.006472613 0.019937972 -0.020834756 -0.006763743
 0.017631778 -0.013718306 -0.006472613 0.019937972 0.000000000 0.000000000 0.000000000 0.000000000
 -0.013127833 -0.016872859 -0.020834756 -0.006763743 0.000000000 0.000000000 0.000000000 0.000000000
20.300000 0.000000000 0.000000000 0.000000000 0.000000000 0.010240354 -0.019689457 -0.018913200 -0.009836628
 0.000000000 0.000000000 0.000000000 0.000000000 0.002531911 0.020749414 -0.021601035 0.002635829
 0.010240354 -0.019689457 0.002531911 0.020749414 0.000000000 0.000000000 0.000000000 0.000000000
 -0.018913200 -0.009836628 -0.021601035 0.002635829 0.000000000 0.000000000 0.000000000 0.000000000
20.350000 0.000000000 0.000000000 0.000000000 0.000000000 0.001093167 -0.022020496 -0.021232289 -0.001054038
 0.000000000 0.000000000 0.000000000 0.000000000 0.011014833 0.017696625 -0.018353577 0.011423737
 0.001093167 -0.022020496 0.011014833 0.017696625 0.000000000 0.000000000 0.000000000 0.000000000
 -0.021232289 -0.001054038 -0.018353577 0.011423737 0.000000000 0.000000000 0.000000000 0.000000000
20.400000 0.000000000 0.000000000 0.000000000 0.000000000 -0.008132092 -0.020337458 -0.019683605 0.007870644
 0.000000000 0.000000000 0.000000000 0.000000000 0.017401241 0.011369220 -0.011746884 0.017979278
 -0.008132092 -0.020337458 0.017401241 0.011369220 0.000000000 0.000000000 0.000000000 0.000000000
 -0.019683605 0.007870644 -0.011746884 0.017979278 0.000000000 0.000000000 0.000000000 0.000000000
20.450000 0.000000000 0.000000000 0.000000000 0.000000000 -0.015765619 -0.014997372 -0.014570054 0.015316412
 0.000000000 0.000000000 0.000000000 0.000000000 0.020515060 0.002962536 -0.003049423 0.021116737
 -0.015765619 -0.014997372 0.020515060 0.002962536 0.000000000 0.000000000 0.000000000 0.000000000
 -0.014570054 0.015316412 -0.003049423 0.021116737 0.000000000 0.000000000 0.000000000 0.000000000
20.500000 0.000000000 0.000000000 0.000000000 0.000000000 -0.020447421 -0.007014078 -0.006839974 0.019939873
 0.000000000 0.000000000 0.000000000 0.000000000 0.019795529 -0.005948107 0.006099509 0.020299403
 -0.020447421 -0.007014078 0.019795529 -0.005948107 0.000000000 0.000000000 0.000000000 0.000000000
 -0.006839974 0.019939873 0.006099509 0.020299403 0.000000000 0.000000000 0.000000000 0.000000000
20.550000 0.000000000 0.000000000 0.000000000 0.000000000 -0.021369232 0.002133765 0.002088662 0.020917532
 0.000000000 0.000000000 0.000000000 0.000000000 0.015398000 -0.013702538 0.013998435 0.015730509
 -0.021369232 0.002133765 0.015398000 -0.013702538 0.000000000 0.000000000 0.000000000 0.000000000
 0.002088662 0.020917532 0.013998435 0.015730509 0.000000000 0.000000000 0.000000000 0.000000000
20.600000 0.000000000 0.000000000 0.000000000 0.000000000 -0.018413468 0.010776221 0.010588284 0.018092338
 0.000000000 0.000000000 0.000000000 0.000000000 0.008161012 -0.018864973 0.019199818 0.008305866
 -0.018413468 0.010776221 0.008161012 -0.018864973 0.000000000 0.000000000 0.000000000 0.000000000
 0.010588284 0.018092338 0.019199818 0.008305866 0.000000000 0.000000000 0.000000000 0.000000000
20.650000 0.000000000 0.000000000 0.000000000 0.000000000 -0.012165445 0.017356620 0.017118343 0.011998434
 0.000000000 0.000000000 0.000000000 0.000000000 -0.000553523 -0.020489766 0.020774971 -0.000561228
 -0.012165445 0.017356620 -0.000553523 -0.020489766 0.000000000 0.000000000 0.000000000 0.000000000
 0.017118343 0.011998434 0.020774971 -0.000561228 0.000000000 0.000000000 0.000000000 0.000000000
20.700000 0.000000000 0.000000000 0.000000000 0.000000000 -0.003798301 0.020711624 0.020504448 0.003760307
 0.000000000 0.000000000 0.000000000 0.000000000 -0.009116541 -0.018294511 0.018479358 -0.009208654
 -0.003798301 0.020711624 -0.009116541 -0.018294511 0.000000000 0.000000000 0.000000000 0.000000000
 0.020504448 0.003760307 0.018479358 -0.009208654 0.000000000 0.000000000 0.000000000 0.000000000
20.750000 0.000000000 0.000000000 0.000000000 0.000000000 0.005146871 0.020276482 0.020149480 -0.005114634
 0.000000000 0.000000000 0.000000000 0.000000000 -0.015936292 -0.012708836 0.012788940 -0.016036739
 0.005146871 0.020276482 -0.015936292 -0.012708836 0.000000000 0.000000000 0.000000000 0.000000000
 0.020149480 -0.005114634 0.012788940 -0.016036739 0.000000000 0.000000000 0.000000000 0.000000000
20.800000 0.000000000 0.000000000 0.000000000 0.000000000 0.013044567 0.016179340 0.016138728 -0.013011824
 0.000000000 0.000000000 0.000000000 0.000000000 -0.019754146 -0.004790497 0.004802552 -0.019803856
 0.013044567 0.016179340 -0.019754146 -0.004790497 0.000000000 0.000000000 0.000000000 0.000000000
 0.016138728 -0.013011824 0.004802552 -0.019803856 0.000000000 0.000000000 0.000000000 0.000000000
20.850000 0.000000000 0.000000000 0.000000000 0.000000000 0.018479957 0.009209003 0.009220583 -0.018503195
 0.000000000 0.000000000 0.000000000 0.000000000 -0.019876784 0.003974853 -0.003969861 -0.019851822
 0.018479957 0.009209003 -0.019876784 0.003974853 0.000000000 0.000000000 0.000000000 0.000000000
 0.009220583 -0.018503195 -0.003969861 -0.019851822 0.000000000 0.000000000 0.000000000 0.000000000
20.900000 0.000000000 0.000000000 0.000000000 0.000000000 0.020502021 0.000663643 0.000666987 -0.020605335
 0.000000000 0.000000000 0.000000000 0.000000000 -0.016301963 0.011952337 -0.011892408 -0.016220225
 0.020502021 0.000663643 -0.016301963 0.011952337 0.000000000 0.000000000 0.000000000 0.000000000
 0.000666987 -0.020605335 -0.011892408 -0.016220225 0.000000000 0.000000000 0.000000000 0.000000000
20.950000 0.000000000 0.000000000 0.000000000 0.000000000 0.018789481 -0.007890640 -0.007960356 -0.018955493
 0.000000000 0.000000000 0.000000000 0.000000000 -0.009715062 0.017662718 -0.017508028 -0.009629978
 0.018789481 -0.007890640 -0.009715062 0.017662718 0.000000000 0.000000000 0.000000000 0.000000000
 -0.007960356 -0.018955493 -0.017508028 -0.009629978 0.000000000 0.000000000 0.000000000 0.000000000
21.000000 0.000000000 0.000000000 0.000000000 0.000000000 0.013700689 -0.014906545 -0.015095053 -0.013873948
 0.000000000 0.000000000 0.000000000 0.000000000 -0.001357790 0.020056604 -0.019806136 -0.001340834
 0.013700689 -0.014906545 -0.001357790 0.020056604 0.000000000 0.000000000 0.000000000 0.000000000
 -0.015095053 -0.013873948 -0.019806136 -0.001340834 0.000000000 0.000000000 0.000000000 0.000000000
21.050000 0.000000000 0.000000000 0.000000000 0.000000000 0.006199950 -0.019135160 -0.019450339 -0.006302071
 0.000000000 0.000000000 0.000000000 0.000000000 0.007205831 0.018707191 -0.018404054 0.007089066
 0.006199950 -0.019135160 0.007205831 0.018707191 0.000000000 0.000000000 0.000000000 0.000000000
 -0.019450339 -0.006302071 -0.018404054 0.007089066 0.000000000 0.000000000 0.000000000 0.000000000
21.100000 0.000000000 0.000000000 0.000000000 0.000000000 -0.002324774 -0.019847934 -0.020251067 0.002371993
 0.000000000 0.000000000 0.000000000 0.000000000 0.014382097 0.013886154 -0.013609726 0.014095796
 -0.002324774 -0.019847934 0.014382097 0.013886154 0.000000000 0.000000000 0.000000000 0.000000000
 -0.020251067 0.002371993 -0.013609726 0.014095796 0.000000000 0.000000000 0.000000000 0.000000000
21.150000 0.000000000 0.000000000 0.000000000 0.000000000 -0.010318397 -0.016961650 -0.017371541 0.010567749
 0.000000000 0.000000000 0.000000000 0.000000000 0.018844139 0.006509243 -0.006355654 0.018399501
 -0.010318397 -0.016961650 0.018844139 0.006509243 0.000000000 0.000000000 0.000000000 0.000000000
 -0.017371541 0.010567749 -0.006355654 0.018399501 0.000000000 0.000000000 0.000000000 0.000000000
21.200000 0.000000000 0.000000000 0.000000000 0.000000000 -0.016342112 -0.011045067 -0.011354719 0.016800268
 0.000000000 0.000000000 0.000000000 0.000000000 0.019777174 -0.002037589 0.001982022 0.019237834
 -0.016342112 -0.011045067 0.019777174 -0.002037589 0.000000000 0.000000000 0.000000000 0.000000000
 -0.011354719 0.016800268 0.001982022 0.019237834 0.000000000 0.000000000 0.000000000 0.000000000
21.250000 0.000000000 0.000000000 0.000000000 0.000000000 -0.019332078 -0.003207578 -0.003309964 0.019949157
 0.000000000 0.000000000 0.000000000 0.000000000 0.017027162 -0.010158507 0.009844278 0.016500468
 -0.019332078 -0.003207578 0.017027162 -0.010158507 0.000000000 0.000000000 0.000000000 0.000000000
 -0.003309964 0.019949157 0.009844278 0.016500468 0.000000000 0.000000000 0.000000000 0.000000000
21.300000 0.000000000 0.000000000 0.000000000 0.000000000 -0.018786927 0.005108454 0.005291437 0.019459869
 0.000000000 0.000000000 0.000000000 0.000000000 0.011125787 -0.016345701 0.015780450 0.010741046
 -0.018786927 0.005108454 0.011125787 -0.016345701 0.000000000 0.000000000 0.000000000 0.000000000
 0.005291437 0.019459869 0.015780450 0.010741046 0.000000000 0.000000000 0.000000000 0.000000000
21.350000 0.000000000 0.000000000 0.000000000 0.000000000 -0.014851111 0.012392861 0.012885288 0.015441215
 0.000000000 0.000000000 0.000000000 0.000000000 0.003187794 -0.019459266 0.018715606 0.003065968
 -0.014851111 0.012392861 0.003187794 -0.019459266 0.000000000 0.000000000 0.000000000 0.000000000
 0.012885288 0.015441215 0.018715606 0.003065968 0.000000000 0.000000000 0.000000000 0.000000000
21.400000 0.000000000 0.000000000 0.000000000 0.000000000 -0.008280383 0.017341649 0.018098874 0.008641947
 0.000000000 0.000000000 0.000000000 0.000000000 -0.005299520 -0.018937114 0.018144819 -0.005077797
 -0.008280383 0.017341649 -0.005299520 -0.018937114 0.000000000 0.000000000 0.000000000 0.000000000
 0.018098874 0.008641947 0.018144819 -0.005077797 0.000000000 0.000000000 0.000000000 0.000000000
21.450000 0.000000000 0.000000000 0.000000000 0.000000000 -0.000297190 0.019090123 0.019999023 0.000311340
 0.000000000 0.000000000 0.000000000 0.000000000 -0.012754905 -0.014896304 0.014219309 -0.012175230
 -0.000297190 0.019090123 -0.012754905 -0.014896304 0.000000000 0.000000000 0.000000000 0.000000000
 0.019999023 0.000311340 0.014219309 -0.012175230 0.000000000 0.000000000 0.000000000 0.000000000
21.500000 0.000000000 0.000000000 0.000000000 0.000000000 0.007636457 0.017363549 0.018259031 -0.008030289
 0.000000000 0.000000000 0.000000000 0.000000000 -0.017797694 -0.008107519 0.007709900 -0.016924837
 0.007636457 0.017363549 -0.017797694 -0.008107519 0.000000000 0.000000000 0.000000000 0.000000000
 0.018259031 -0.008030289 0.007709900 -0.016924837 0.000000000 0.000000000 0.000000000 0.000000000
21.550000 0.000000000 0.000000000 0.000000000 0.000000000 0.014086467 0.012519171 0.013214607 -0.014868967
 0.000000000 0.000000000 0.000000000 0.000000000 -0.019503406 0.000151834 -0.000143844 -0.018477012
 0.014086467 0.012519171 -0.019503406 0.000151834 0.000000000 0.000000000 0.000000000 0.000000000
 0.013214607 -0.014868967 -0.000143844 -0.018477012 0.000000000 0.000000000 0.000000000 0.000000000
21.600000 0.000000000 0.000000000 0.000000000 0.000000000 0.017905631 0.005473407 0.005799309 -0.018971783
 0.000000000 0.000000000 0.000000000 0.000000000 -0.017573129 0.008337921 -0.007869357 -0.016585576
 0.017905631 0.005473407 -0.017573129 0.008337921 0.000000000 0.000000000 0.000000000 0.000000000
 0.005799309 -0.018971783 -0.007869357 -0.016585576 0.000000000 0.000000000 0.000000000 0.000000000
21.650000 0.000000000 0.000000000 0.000000000 0.000000000 0.018437351 -0.002471115 -0.002628159 -0.019609080
 0.000000000 0.000000000 0.000000000 0.000000000 -0.012385652 0.014928996 -0.014036923 -0.011645555
 0.018437351 -0.002471115 -0.012385652 0.014928996 0.000000000 0.000000000 0.000000000 0.000000000
 -0.002628159 -0.019609080 -0.014036923 -0.011645555 0.000000000 0.000000000 0.000000000 0.000000000
21.700000 0.000000000 0.000000000 0.000000000 0.000000000 0.015628003 -0.009866122 -0.010532846 -0.016684098
 0.000000000 0.000000000 0.000000000 0.000000000 -0.004923318 0.018708215 -0.017523994 -0.004611674
 0.015628003 -0.009866122 -0.004923318 0.018708215 0.000000000 0.000000000 0.000000000 0.000000000
 -0.010532846 -0.016684098 -0.017523994 -0.004611674 0.000000000 0.000000000 0.000000000 0.000000000
21.750000 0.000000000 0.000000000 0.000000000 0.000000000 0.010028818 -0.015381460 -0.016483057 -0.010747067
 0.000000000 0.000000000 0.000000000 0.000000000 0.003413937 0.018988203 -0.017719181 0.003185777
 0.010028818 -0.015381460 0.003413937 0.018988203 0.000000000 0.000000000 0.000000000 0.000000000
 -0.016483057 -0.010747067 -0.017719181 0.003185777 0.000000000 0.000000000 0.000000000 0.000000000
21.800000 0.000000000 0.000000000 0.000000000 0.000000000 0.002688366 -0.018044089 -0.019409598 -0.002891812
 0.000000000 0.000000000 0.000000000 0.000000000 0.011071148 0.015735954 -0.014628894 0.010292268
 0.002688366 -0.018044089 0.011071148 0.015735954 0.000000000 0.000000000 0.000000000 0.000000000
 -0.019409598 -0.002891812 -0.014628894 0.010292268 0.000000000 0.000000000 0.000000000 0.000000000
21.850000 0.000000000 0.000000000 0.000000000 0.000000000 -0.005043487 -0.017409397 -0.018797806 0.005445707
 0.000000000 0.000000000 0.000000000 0.000000000 0.016628275 0.009575384 -0.008868145 0.015400108
 -0.005043487 -0.017409397 0.016628275 0.009575384 0.000000000 0.000000000 0.000000000 0.000000000
 -0.018797806 0.005445707 -0.008868145 0.015400108 0.000000000 0.000000000 0.000000000 0.000000000
21.900000 0.000000000 0.000000000 0.000000000 0.000000000 -0.011763562 -0.013634753 -0.014777910 0.012749836
 0.000000000 0.000000000 0.000000000 0.000000000 0.019063478 0.001667742 -0.001538732 0.017588808
 -0.011763562 -0.013634753 0.019063478 0.001667742 0.000000000 0.000000000 0.000000000 0.000000000
 -0.014777910 0.012749836 -0.001538732 0.017588808 0.000000000 0.000000000 0.000000000 0.000000000
21.950000 0.000000000 0.000000000 0.000000000 0.000000000 -0.016269777 -0.007443258 -0.008097886 0.017700689
 0.000000000 0.000000000 0.000000000 0.000000000 0.017940920 -0.006507225 0.005981185 0.016490588
 -0.016269777 -0.007443258 0.017940920 -0.006507225 0.000000000 0.000000000 0.000000000 0.000000000
 -0.008097886 0.017700689 0.005981185 0.016490588 0.000000000 0.000000000 0.000000000 0.000000000
22.000000 0.000000000 0.000000000 0.000000000 0.000000000 -0.017775894 0.000014324 0.000015643 0.019412584
 0.000000000 0.000000000 0.000000000 0.000000000 0.013488599 -0.013428111 0.012295976 0.012351365
 -0.017775894 0.000014324 0.013488599 -0.013428111 0.000000000 0.000000000 0.000000000 0.000000000
 0.000015643 0.019412584 0.012295976 0.012351365 0.000000000 0.000000000 0.000000000 0.000000000
22.050000 0.000000000 0.000000000 0.000000000 0.000000000 -0.016048303 0.007373175 0.008082585 0.017592393
 0.000000000 0.000000000 0.000000000 0.000000000 0.006552344 -0.017814935 0.016251313 0.005977243
 -0.016048303 0.007373175 0.006552344 -0.017814935 0.000000000 0.000000000 0.000000000 0.000000000
 0.008082585 0.017592393 0.016251313 0.005977243 0.000000000 0.000000000 0.000000000 0.000000000
22.100000 0.000000000 0.000000000 0.000000000 0.000000000 -0.011441113 0.013303958 0.014639326 0.012589500
 0.000000000 0.000000000 0.000000000 0.000000000 -0.001564797 -0.018865785 0.017144887 -0.001422060
 -0.011441113 0.013303958 -0.001564797 -0.018865785 0.000000000 0.000000000 0.000000000 0.000000000
 0.014639326 0.012589500 0.017144887 -0.001422060 0.000000000 0.000000000 0.000000000 0.000000000
22.150000 0.000000000 0.000000000 0.000000000 0.000000000 -0.004824522 0.016752720 0.018504213 0.005328925
 0.000000000 0.000000000 0.000000000 0.000000000 -0.009347293 -0.016403304 0.014850670 -0.008462537
 -0.004824522 0.016752720 -0.009347293 -0.016403304 0.000000000 0.000000000 0.000000000 0.000000000
 0.018504213 0.005328925 0.014850670 -0.008462537 0.000000000 0.000000000 0.000000000 0.000000000
22.200000 0.000000000 0.000000000 0.000000000 0.000000000 0.002579184 0.017127894 0.018990435 -0.002859653
 0.000000000 0.000000000 0.000000000 0.000000000 -0.015350029 -0.010904274 0.009834807 -0.013844531
 0.002579184 0.017127894 -0.015350029 -0.010904274 0.000000000 0.000000000 0.000000000 0.000000000
 0.018990435 -0.002859653 0.009834807 -0.013844531 0.000000000 0.000000000 0.000000000 0.000000000
22.250000 0.000000000 0.000000000 0.000000000 0.000000000 0.009421186 0.014401274 0.016027958 -0.010485347
 0.000000000 0.000000000 0.000000000 0.000000000 -0.018466583 -0.003407428 0.003061607 -0.016592403
 0.009421186 0.014401274 -0.018466583 -0.003407428 0.000000000 0.000000000 0.000000000 0.000000000
 0.016027958 -0.010485347 0.003061607 -0.016592403 0.000000000 0.000000000 0.000000000 0.000000000
22.300000 0.000000000 0.000000000 0.000000000 0.000000000 0.014471628 0.009105847 0.010172895 -0.016167454
 0.000000000 0.000000000 0.000000000 0.000000000 -0.018133077 0.004682700 -0.004191525 -0.016231074
 0.014471628 0.009105847 -0.018133077 0.004682700 0.000000000 0.000000000 0.000000000 0.000000000
 0.010172895 -0.016167454 -0.004191525 -0.016231074 0.000000000 0.000000000 0.000000000 0.000000000
22.350000 0.000000000 0.000000000 0.000000000 0.000000000 0.016840448 0.002232168 0.002503219 -0.018885372
 0.000000000 0.000000000 0.000000000 0.000000000 -0.014430067 0.011858852 -0.010574766 -0.012867568
 0.016840448 0.002232168 -0.014430067 0.011858852 0.000000000 0.000000000 0.000000000 0.000000000
 0.002503219 -0.018885372 -0.010574766 -0.012867568 0.000000000 0.000000000 0.000000000 0.000000000
22.400000 0.000000000 0.000000000 0.000000000 0.000000000 0.016133908 -0.004956631 -0.005579649 -0.018161840
 0.000000000 0.000000000 0.000000000 0.000000000 -0.008064087 0.016791808 -0.014916852 -0.007163660
 0.016133908 -0.004956631 -0.008064087 0.016791808 0.000000000 0.000000000 0.000000000 0.000000000
 -0.005579649 -0.018161840 -0.014916852 -0.007163660 0.000000000 0.000000000 0.000000000 0.000000000
22.450000 0.000000000 0.000000000 0.000000000 0.000000000 0.012519373 -0.011156738 -0.012606850 -0.014146596
 0.000000000 0.000000000 0.000000000 0.000000000 -0.000232923 0.018576521 -0.016439742 -0.000206131
 0.012519373 -0.011156738 -0.000232923 0.018576521 0.000000000 0.000000000 0.000000000 0.000000000
 -0.012606850 -0.014146596 -0.016439742 -0.000206131 0.000000000 0.000000000 0.000000000 0.000000000
22.500000 0.000000000 0.000000000 0.000000000 0.000000000 0.006687809 -0.015259906 -0.017308965 -0.007585831
 0.000000000 0.000000000 0.000000000 0.000000000 0.007599699 0.016898073 -0.014897656 0.006700036
 0.006687809 -0.015259906 0.007599699 0.016898073 0.000000000 0.000000000 0.000000000 0.000000000
 -0.017308965 -0.007585831 -0.014897656 0.006700036 0.000000000 0.000000000 0.000000000 0.000000000
22.550000 0.000000000 0.000000000 0.000000000 0.000000000 -0.000277893 -0.016551295 -0.018845250 0.000316408
 0.000000000 0.000000000 0.000000000 0.000000000 0.013977641 0.012087041 -0.010615735 0.012276200
 -0.000277893 -0.016551295 0.013977641 0.012087041 0.000000000 0.000000000 0.000000000 0.000000000
 -0.018845250 0.000316408 -0.010615735 0.012276200 0.000000000 0.000000000 0.000000000 0.000000000
22.600000 0.000000000 0.000000000 0.000000000 0.000000000 -0.007103758 -0.014833634 -0.016953874 0.008119131
 0.000000000 0.000000000 0.000000000 0.000000000 0.017722999 0.005054566 -0.004422446 0.015506573
 -0.007103758 -0.014833634 0.017722999 0.005054566 0.000000000 0.000000000 0.000000000 0.000000000
 -0.016953874 0.008119131 -0.004422446 0.015506573 0.000000000 0.000000000 0.000000000 0.000000000
22.650000 0.000000000 0.000000000 0.000000000 0.000000000 -0.012557511 -0.010456205 -0.011996313 0.014407123
 0.000000000 0.000000000 0.000000000 0.000000000 0.018153570 -0.002880131 0.002510375 0.015822983
 -0.012557511 -0.010456205 0.018153570 -0.002880131 0.000000000 0.000000000 0.000000000 0.000000000
 -0.011996313 0.014407123 0.002510375 0.015822983 0.000000000 0.000000000 0.000000000 0.000000000
22.700000 0.000000000 0.000000000 0.000000000 0.000000000 -0.015670820 -0.004244651 -0.004888424 0.018047564
 0.000000000 0.000000000 0.000000000 0.000000000 0.015207002 -0.010237176 0.008889008 0.013204341
 -0.015670820 -0.004244651 0.015207002 -0.010237176 0.000000000 0.000000000 0.000000000 0.000000000
 -0.004888424 0.018047564 0.008889008 0.013204341 0.000000000 0.000000000 0.000000000 0.000000000
22.750000 0.000000000 0.000000000 0.000000000 0.000000000 -0.015910954 0.002654436 0.003068692 0.018394040
 0.000000000 0.000000000 0.000000000 0.000000000 0.009449059 -0.015651989 0.013539063 0.008173492
 -0.015910954 0.002654436 0.009449059 -0.015651989 0.000000000 0.000000000 0.000000000 0.000000000
 0.003068692 0.018394040 0.013539063 0.008173492 0.000000000 0.000000000 0.000000000 0.000000000
22.800000 0.000000000 0.000000000 0.000000000 0.000000000 -0.013271475 0.008984938 0.010426798 0.015401218
 0.000000000 0.000000000 0.000000000 0.000000000 0.001965094 -0.018128319 0.015621462 0.001693353
 -0.013271475 0.008984938 0.001965094 -0.018128319 0.000000000 0.000000000 0.000000000 0.000000000
 0.010426798 0.015401218 0.015621462 0.001693353 0.000000000 0.000000000 0.000000000 0.000000000
22.850000 0.000000000 0.000000000 0.000000000 0.000000000 -0.008266619 0.013609706 0.015854061 0.009629853
 0.000000000 0.000000000 0.000000000 0.000000000 -0.005844484 -0.017221465 0.014783537 -0.005017119
 -0.008266619 0.013609706 -0.005844484 -0.017221465 0.000000000 0.000000000 0.000000000 0.000000000
 0.015854061 0.009629853 0.014783537 -0.005017119 0.000000000 0.000000000 0.000000000 0.000000000
22.900000 0.000000000 0.000000000 0.000000000 0.000000000 -0.001831615 0.015714607 0.018376048 0.002141820
 0.000000000 0.000000000 0.000000000 0.000000000 -0.012526204 -0.013117983 0.011218078 -0.010712008
 -0.001831615 0.015714607 -0.012526204 -0.013117983 0.000000000 0.000000000 0.000000000 0.000000000
 0.018376048 0.002141820 0.011218078 -0.010712008 0.000000000 0.000000000 0.000000000 0.000000000
22.950000 0.000000000 0.000000000 0.000000000 0.000000000 0.004851807 0.014951532 0.017550607 -0.005695212
 0.000000000 0.000000000 0.000000000 0.000000000 -0.016843985 -0.006597642 0.005620596 -0.014349555
 0.004851807 0.014951532 -0.016843985 -0.006597642 0.000000000 0.000000000 0.000000000 0.000000000
 0.017550607 -0.005695212 0.005620596 -0.014349555 0.000000000 0.000000000 0.000000000 0.000000000
23.000000 0.000000000 0.000000000 0.000000000 0.000000000 0.010572226 0.011495326 0.013545235 -0.012457524
 0.000000000 0.000000000 0.000000000 0.000000000 -0.018007737 0.001114682 -0.000945988 -0.015282481
 0.010572226 0.011495326 -0.018007737 0.001114682 0.000000000 0.000000000 0.000000000 0.000000000
 0.013545235 -0.012457524 -0.000945988 -0.015282481 0.000000000 0.000000000 0.000000000 0.000000000
23.050000 0.000000000 0.000000000 0.000000000 0.000000000 0.014307910 0.006005434 0.007103453 -0.016923934
 0.000000000 0.000000000 0.000000000 0.000000000 -0.015817843 0.008579055 -0.007252944 -0.013372794
 0.014307910 0.006005434 -0.015817843 0.008579055 0.000000000 0.000000000 0.000000000 0.000000000
 0.007103453 -0.016923934 -0.007252944 -0.013372794 0.000000000 0.000000000 0.000000000 0.000000000
23.100000 0.000000000 0.000000000 0.000000000 0.000000000 0.015409068 -0.000499546 -0.000593146 -0.018296264
 0.000000000 0.000000000 0.000000000 0.000000000 -0.010699122 0.014409273 -0.012135454 -0.009010774
 0.015409068 -0.000499546 -0.010699122 0.014409273 0.000000000 0.000000000 0.000000000 0.000000000
 -0.000593146 -0.018296264 -0.012135454 -0.009010774 0.000000000 0.000000000 0.000000000 0.000000000
23.150000 0.000000000 0.000000000 0.000000000 0.000000000 0.013710527 -0.006830634 -0.008141586 -0.016341886
 0.000000000 0.000000000 0.000000000 0.000000000 -0.003618541 0.017530237 -0.014707530 -0.003035886
 0.013710527 -0.006830634 -0.003618541 0.017530237 0.000000000 0.000000000 0.000000000 0.000000000
 -0.008141586 -0.016341886 -0.014707530 -0.003035886 0.000000000 0.000000000 0.000000000 0.000000000
23.200000 0.000000000 0.000000000 0.000000000 0.000000000 0.009555344 -0.011845587 -0.014173194 -0.011432928
 0.000000000 0.000000000 0.000000000 0.000000000 0.004097387 0.017376127 -0.014522515 0.003424490
 0.009555344 -0.011845587 0.004097387 0.017376127 0.000000000 0.000000000 0.000000000 0.000000000
 -0.014173194 -0.011432928 -0.014522515 0.003424490 0.000000000 0.000000000 0.000000000 0.000000000
23.250000 0.000000000 0.000000000 0.000000000 0.000000000 0.003726244 -0.014654786 -0.017601711 -0.004475552
 0.000000000 0.000000000 0.000000000 0.000000000 0.011011078 0.013992868 -0.011650145 0.009167574
 0.003726244 -0.014654786 0.011011078 0.013992868 0.000000000 0.000000000 0.000000000 0.000000000
 -0.017601711 -0.004475552 -0.011650145 0.009167574 0.000000000 0.000000000 0.000000000 0.000000000
23.300000 0.000000000 0.000000000 0.000000000 0.000000000 -0.002701536 -0.014778791 -0.017818851 0.003257253
 0.000000000 0.000000000 0.000000000 0.000000000 0.015841656 0.008026354 -0.006656984 0.013138924
 -0.002701536 -0.014778791 0.015841656 0.008026354 0.000000000 0.000000000 0.000000000 0.000000000
 -0.017818851 0.003257253 -0.006656984 0.013138924 0.000000000 0.000000000 0.000000000 0.000000000
23.350000 0.000000000 0.000000000 0.000000000 0.000000000 -0.008558378 -0.012229721 -0.014802120 0.010358546
 0.000000000 0.000000000 0.000000000 0.000000000 0.017702202 0.000599221 -0.000495085 0.014625810
 -0.008558378 -0.012229721 0.017702202 0.000599221 0.000000000 0.000000000 0.000000000 0.000000000
 -0.014802120 0.010358546 -0.000495085 0.014625810 0.000000000 0.000000000 0.000000000 0.000000000
23.400000 0.000000000 0.000000000 0.000000000 0.000000000 -0.012792927 -0.007502735 -0.009115799 0.015543365
 0.000000000 0.000000000 0.000000000 0.000000000 0.016262512 -0.006900334 0.005679302 0.013384819
 -0.012792927 -0.007502735 0.016262512 -0.006900334 0.000000000 0.000000000 0.000000000 0.000000000
 -0.009115799 0.015543365 0.005679302 0.013384819 0.000000000 0.000000000 0.000000000 0.000000000
23.450000 0.000000000 0.000000000 0.000000000 0.000000000 -0.014660609 -0.001480299 -0.001805483 0.017881179
 0.000000000 0.000000000 0.000000000 0.000000000 0.011807528 -0.013077968 0.010722501 0.009680880
 -0.014660609 -0.001480299 0.011807528 -0.013077968 0.000000000 0.000000000 0.000000000 0.000000000
 -0.001805483 0.017881179 0.010722501 0.009680880 0.000000000 0.000000000 0.000000000 0.000000000
23.500000 0.000000000 0.000000000 0.000000000 0.000000000 -0.013854268 0.004732318 0.005794132 0.016962819
 0.000000000 0.000000000 0.000000000 0.000000000 0.005181133 -0.016792380 0.013715063 0.004231655
 -0.013854268 0.004732318 0.005181133 -0.016792380 0.000000000 0.000000000 0.000000000 0.000000000
 0.005794132 0.016962819 0.013715063 0.004231655 0.000000000 0.000000000 0.000000000 0.000000000
23.550000 0.000000000 0.000000000 0.000000000 0.000000000 -0.010554054 0.010009697 0.012302884 0.012971951
 0.000000000 0.000000000 0.000000000 0.000000000 -0.002373643 -0.017366093 0.014129153 -0.001931210
 -0.010554054 0.010009697 -0.002373643 -0.017366093 0.000000000 0.000000000 0.000000000 0.000000000
 0.012302884 0.012971951 0.014129153 -0.001931210 0.000000000 0.000000000 0.000000000 0.000000000
23.600000 0.000000000 0.000000000 0.000000000 0.000000000 -0.005388574 0.013409959 0.016545744 0.006648639
 0.000000000 0.000000000 0.000000000 0.000000000 -0.009447747 -0.014708930 0.011921261 -0.007657190
 -0.005388574 0.013409959 -0.009447747 -0.014708930 0.000000000 0.000000000 0.000000000 0.000000000
 0.016545744 0.006648639 0.011921261 -0.007657190 0.000000000 0.000000000 0.000000000 0.000000000
23.650000 0.000000000 0.000000000 0.000000000 0.000000000 0.000684499 0.014342647 0.017764884 -0.000847825
 0.000000000 0.000000000 0.000000000 0.000000000 -0.014728862 -0.009331678 0.007534018 -0.011891486
 0.000684499 0.014342647 -0.014728862 -0.009331678 0.000000000 0.000000000 0.000000000 0.000000000
 0.017764884 -0.000847825 0.007534018 -0.011891486 0.000000000 0.000000000 0.000000000 0.000000000
23.700000 0.000000000 0.000000000 0.000000000 0.000000000 0.006555780 0.012670926 0.015754948 -0.008151415
 0.000000000 0.000000000 0.000000000 0.000000000 -0.017244794 -0.002248001 0.001807956 -0.013869135
 0.006555780 0.012670926 -0.017244794 -0.002248001 0.000000000 0.000000000 0.000000000 0.000000000
 0.015754948 -0.008151415 0.001807956 -0.013869135 0.000000000 0.000000000 0.000000000 0.000000000
23.750000 0.000000000 0.000000000 0.000000000 0.000000000 0.011166640 0.008730467 0.010897404 -0.013938245
 0.000000000 0.000000000 0.000000000 0.000000000 -0.016542373 0.005216597 -0.004179283 -0.013252940
 0.011166640 0.008730467 -0.016542373 0.005216597 0.000000000 0.000000000 0.000000000 0.000000000
 0.010897404 -0.013938245 -0.004179283 -0.013252940 0.000000000 0.000000000 0.000000000 0.000000000
23.800000 0.000000000 0.000000000 0.000000000 0.000000000 0.013699903 0.003262689 0.004088271 -0.017166488
 0.000000000 0.000000000 0.000000000 0.000000000 -0.012768950 0.011672752 -0.009315567 -0.010190401
 0.013699903 0.003262689 -0.012768950 0.011672752 0.000000000 0.000000000 0.000000000 0.000000000
 0.004088271 -0.017166488 -0.009315567 -0.010190401 0.000000000 0.000000000 0.000000000 0.000000000
23.850000 0.000000000 0.000000000 0.000000000 0.000000000 0.013724435 -0.002724481 -0.003427105 -0.017263873
 0.000000000 0.000000000 0.000000000 0.000000000 -0.006641864 0.015925787 -0.012660683 -0.005280150
 0.013724435 -0.002724481 -0.006641864 0.015925787 0.000000000 0.000000000 0.000000000 0.000000000
 -0.003427105 -0.017263873 -0.012660683 -0.005280150 0.000000000 0.000000000 0.000000000 0.000000000
23.900000 0.000000000 0.000000000 0.000000000 0.000000000 0.011268094 -0.008142223 -0.010281774 -0.014229036
 0.000000000 0.000000000 0.000000000 0.000000000 0.000687859 0.017196720 -0.013618228 0.000544721
 0.011268094 -0.008142223 0.000687859 0.017196720 0.000000000 0.000000000 0.000000000 0.000000000
 -0.010281774 -0.014229036 -0.013618228 0.000544721 0.000000000 0.000000000 0.000000000 0.000000000
23.950000 0.000000000 0.000000000 0.000000000 0.000000000 0.006806776 -0.012018666 -0.015235757 -0.008628778
 0.000000000 0.000000000 0.000000000 0.000000000 0.007851688 0.015264864 -0.012041626 0.006193773
 0.006806776 -0.012018666 0.007851688 0.015264864 0.000000000 0.000000000 0.000000000 0.000000000
 -0.015235757 -0.008628778 -0.012041626 0.006193773 0.000000000 0.000000000 0.000000000 0.000000000
24.000000 0.000000000 0.000000000 0.000000000 0.000000000 0.001172628 -0.013673032 -0.017400307 -0.001492287
 0.000000000 0.000000000 0.000000000 0.000000000 0.013519058 0.010505915 -0.008255470 0.010623176
 0.001172628 -0.013673032 0.013519058 0.010505915 0.000000000 0.000000000 0.000000000 0.000000000
 -0.017400307 -0.001492287 -0.008255470 0.010623176 0.000000000 0.000000000 0.000000000 0.000000000
24.050000 0.000000000 0.000000000 0.000000000 0.000000000 -0.004600955 -0.012834933 -0.016397269 0.005877950
 0.000000000 0.000000000 0.000000000 0.000000000 0.016644447 0.003819022 -0.002989333 0.013028412
 -0.004600955 -0.012834933 0.016644447 0.003819022 0.000000000 0.000000000 0.000000000 0.000000000
 -0.016397269 0.005877950 -0.002989333 0.013028412 0.000000000 0.000000000 0.000000000 0.000000000
24.100000 0.000000000 0.000000000 0.000000000 0.000000000 -0.009468693 -0.009687945 -0.012425017 0.012143821
 0.000000000 0.000000000 0.000000000 0.000000000 0.016660193 -0.003543042 0.002762555 0.012990166
 -0.009468693 -0.009687945 0.016660193 -0.003543042 0.000000000 0.000000000 0.000000000 0.000000000
 -0.012425017 0.012143821 0.002762555 0.012990166 0.000000000 0.000000000 0.000000000 0.000000000
24.150000 0.000000000 0.000000000 0.000000000 0.000000000 -0.012562500 -0.004830572 -0.006219463 0.016174483
 0.000000000 0.000000000 0.000000000 0.000000000 0.013579492 -0.010208541 0.007928834 0.010547006
 -0.012562500 -0.004830572 0.013579492 -0.010208541 0.000000000 0.000000000 0.000000000 0.000000000
 -0.006219463 0.016174483 0.007928834 0.010547006 0.000000000 0.000000000 0.000000000 0.000000000
24.200000 0.000000000 0.000000000 0.000000000 0.000000000 -0.013346090 0.000837274 0.001082213 0.017250393
 0.000000000 0.000000000 0.000000000 0.000000000 0.007990928 -0.014942316 0.011560402 0.006182331
 -0.013346090 0.000837274 0.007990928 -0.014942316 0.000000000 0.000000000 0.000000000 0.000000000
 0.001082213 0.017250393 0.011560402 0.006182331 0.000000000 0.000000000 0.000000000 0.000000000
24.250000 0.000000000 0.000000000 0.000000000 0.000000000 -0.011707618 0.006280812 0.008149914 0.015191679
 0.000000000 0.000000000 0.000000000 0.000000000 0.000946095 -0.016874610 0.013004585 0.000729118
 -0.011707618 0.006280812 0.000946095 -0.016874610 0.000000000 0.000000000 0.000000000 0.000000000
 0.008149914 0.015191679 0.013004585 0.000729118 0.000000000 0.000000000 0.000000000 0.000000000
24.300000 0.000000000 0.000000000 0.000000000 0.000000000 -0.007974421 0.010519145 0.013702874 0.010387962
 0.000000000 0.000000000 0.000000000 0.000000000 -0.006238232 -0.015660804 0.012022170 -0.004788840
 -0.007974421 0.010519145 -0.006238232 -0.015660804 0.000000000 0.000000000 0.000000000 0.000000000
 0.013702874 0.010387962 0.012022170 -0.004788840 0.000000000 0.000000000 0.000000000 0.000000000
24.350000 0.000000000 0.000000000 0.000000000 0.000000000 -0.002848183 0.012801845 0.016741695 0.003724729
 0.000000000 0.000000000 0.000000000 0.000000000 -0.012226175 -0.011542730 0.008826360 -0.009348969
 -0.002848183 0.012801845 -0.012226175 -0.011542730 0.000000000 0.000000000 0.000000000 0.000000000
 0.016741695 0.003724729 0.008826360 -0.009348969 0.000000000 0.000000000 0.000000000 0.000000000
24.400000 0.000000000 0.000000000 0.000000000 0.000000000 0.002726708 0.012741599 0.016728161 -0.003579834
 0.000000000 0.000000000 0.000000000 0.000000000 -0.015911101 -0.005300688 0.004037457 -0.012119255
 0.002726708 0.012741599 -0.015911101 -0.005300688 0.000000000 0.000000000 0.000000000 0.000000000
 0.016728161 -0.003579834 0.004037457 -0.012119255 0.000000000 0.000000000 0.000000000 0.000000000
24.450000 0.000000000 0.000000000 0.000000000 0.000000000 0.007736971 0.010379518 0.013680459 -0.010197517
 0.000000000 0.000000000 0.000000000 0.000000000 -0.016620079 0.001894348 -0.001437263 -0.012609841
 0.007736971 0.010379518 -0.016620079 0.001894348 0.000000000 0.000000000 0.000000000 0.000000000
 0.013680459 -0.010197517 -0.001437263 -0.012609841 0.000000000 0.000000000 0.000000000 0.000000000
24.500000 0.000000000 0.000000000 0.000000000 0.000000000 0.011284449 0.006172174 0.008167001 -0.014931547
 0.000000000 0.000000000 0.000000000 0.000000000 -0.014236690 0.008700352 -0.006575251 -0.010759314
 0.011284449 0.006172174 -0.014236690 0.008700352 0.000000000 0.000000000 0.000000000 0.000000000
 0.008167001 -0.014931547 -0.006575251 -0.010759314 0.000000000 0.000000000 0.000000000 0.000000000
24.550000 0.000000000 0.000000000 0.000000000 0.000000000 0.012746939 0.000903716 0.001200492 -0.016932970
 0.000000000 0.000000000 0.000000000 0.000000000 -0.009219773 0.013854519 -0.010429518 -0.006940535
 0.012746939 0.000903716 -0.009219773 0.013854519 0.000000000 0.000000000 0.000000000 0.000000000
 0.001200492 -0.016932970 -0.010429518 -0.006940535 0.000000000 0.000000000 0.000000000 0.000000000
24.600000 0.000000000 0.000000000 0.000000000 0.000000000 0.011887067 -0.004460075 -0.005948042 -0.015852821
 0.000000000 0.000000000 0.000000000 0.000000000 -0.002515195 0.016407520 -0.012303001 -0.001885992
 0.011887067 -0.004460075 -0.002515195 0.016407520 0.000000000 0.000000000 0.000000000 0.000000000
 -0.005948042 -0.015852821 -0.012303001 -0.001885992 0.000000000 0.000000000 0.000000000 0.000000000
24.650000 0.000000000 0.000000000 0.000000000 0.000000000 0.008890214 -0.008948670 -0.011981105 -0.011902841
 0.000000000 0.000000000 0.000000000 0.000000000 0.004622432 0.015898287 -0.011874407 0.003452488
 0.008890214 -0.008948670 0.004622432 0.015898287 0.000000000 0.000000000 0.000000000 0.000000000
 -0.011981105 -0.011902841 -0.011874407 0.003452488 0.000000000 0.000000000 0.000000000 0.000000000
24.700000 0.000000000 0.000000000 0.000000000 0.000000000 0.004325548 -0.011762243 -0.015810185 -0.005814173
 0.000000000 0.000000000 0.000000000 0.000000000 0.010864483 0.012437175 -0.009252837 0.008082808
 0.004325548 -0.011762243 0.010864483 0.012437175 0.000000000 0.000000000 0.000000000 0.000000000
 -0.015810185 -0.005814173 -0.009252837 0.008082808 0.000000000 0.000000000 0.000000000 0.000000000
24.750000 0.000000000 0.000000000 0.000000000 0.000000000 -0.000961802 -0.012414007 -0.016752096 0.001297905
 0.000000000 0.000000000 0.000000000 0.000000000 0.015055584 0.006682509 -0.004952020 0.011156821
 -0.000961802 -0.012414007 0.015055584 0.006682509 0.000000000 0.000000000 0.000000000 0.000000000
 -0.016752096 0.001297905 -0.004952020 0.011156821 0.000000000 0.000000000 0.000000000 0.000000000
24.800000 0.000000000 0.000000000 0.000000000 0.000000000 -0.006007042 -0.010814133 -0.014650795 0.008138233
 0.000000000 0.000000000 0.000000000 0.000000000 0.016427420 -0.000284567 0.000210047 0.012125506
 -0.006007042 -0.010814133 0.016427420 -0.000284567 0.000000000 0.000000000 0.000000000 0.000000000
 -0.014650795 0.008138233 0.000210047 0.012125506 0.000000000 0.000000000 0.000000000 0.000000000
24.850000 0.000000000 0.000000000 0.000000000 0.000000000 -0.009901611 -0.007280841 -0.009902967 0.013467582
 0.000000000 0.000000000 0.000000000 0.000000000 0.014739501 -0.007163168 0.005266491 0.010836748
 -0.009901611 -0.007280841 0.014739501 -0.007163168 0.000000000 0.000000000 0.000000000 0.000000000
 -0.009902967 0.013467582 0.005266491 0.010836748 0.000000000 0.000000000 0.000000000 0.000000000
24.900000 0.000000000 0.000000000 0.000000000 0.000000000 -0.011956642 -0.002477613 -0.003383246 0.016327111
 0.000000000 0.000000000 0.000000000 0.000000000 0.010321145 -0.012675519 0.009282514 0.007558363
 -0.011956642 -0.002477613 0.010321145 -0.012675519 0.000000000 0.000000000 0.000000000 0.000000000
 -0.003383246 0.016327111 0.009282514 0.007558363 0.000000000 0.000000000 0.000000000 0.000000000
24.950000 0.000000000 0.000000000 0.000000000 0.000000000 -0.011824600 0.002711177 0.003716861 0.016210820
 0.000000000 0.000000000 0.000000000 0.000000000 0.004007353 -0.015804271 0.011528053 0.002923069
 -0.011824600 0.002711177 0.004007353 -0.015804271 0.000000000 0.000000000 0.000000000 0.000000000
 0.003716861 0.016210820 0.011528053 0.002923069 0.000000000 0.000000000 0.000000000 0.000000000
25.000000 0.000000000 0.000000000 0.000000000 0.000000000 -0.009557660 0.007342937 0.010106686 0.013154991
 0.000000000 0.000000000 0.000000000 0.000000000 -0.003018942 -0.015980205 0.011610298 -0.002193389
 -0.009557660 0.007342937 -0.003018942 -0.015980205 0.000000000 0.000000000 0.000000000 0.000000000
 0.010106686 0.013154991 0.011610298 -0.002193389 0.000000000 0.000000000 0.000000000 0.000000000
